System
1.0
5.47397903 0.0 0.0
0.0 5.47397903 0.0
0.0 0.0 16.09975977
Mg As
4 16
direct
0.80314052 0.80314052 0.5 
0.69685948 0.30314052 0.75 
0.30314052 0.69685948 0.25 
0.19685948 0.19685948 0.0 
0.40057251 0.47606852 0.8750072 
0.90057251 0.02393148 0.8749928 
0.97606852 0.09942749 0.6250072 
0.02393148 0.90057251 0.1250072 
0.67556552 0.06703315 0.2027562 
0.43296685 0.17556552 0.4527562 
0.56703315 0.82443448 0.9527562 
0.17556552 0.43296685 0.5472438 
0.82443448 0.56703315 0.0472438 
0.32443448 0.93296685 0.7027562 
0.06703315 0.67556552 0.7972438 
0.93296685 0.32443448 0.2972438 
0.59942749 0.52393148 0.3750072 
0.47606852 0.40057251 0.1249928 
0.52393148 0.59942749 0.6249928 
0.09942749 0.97606852 0.3749928 
