System
1.0
2.97828733 0.0 0.0
-1.48914366 2.75643389 -0.69472023
0.0 -0.02751454 5.92949392
O Mn Cu
2 1 1
direct
0.5960459 0.19209081 0.81976509 
0.4039541 0.80790719 0.18023391 
0.0 0.0 0.0 
0.500001 1e-06 0.500001 
