System
1.0
3.62351647 0.0 0.0
-1.81175823 3.1380573 0.0
0.0 0.0 17.40252303
Ga S
4 4
direct
0.0 0.0 0.17915814 
0.0 0.0 0.67915814 
0.0 0.0 0.32084186 
0.0 0.0 0.82084186 
0.666667 0.333333 0.11696674 
0.333333 0.666667 0.61696674 
0.666667 0.333333 0.38303326 
0.333333 0.666667 0.88303326 
