System
1.0
0.0 3.10102478 3.10102478
3.10102478 0.0 3.10102478
3.10102478 3.10102478 0.0
Ti Tc Os
2 1 1
direct
0.0 0.0 0.0 
0.5 0.5 0.5 
0.75 0.75 0.75 
0.25 0.25 0.25 
