System
1.0
3.85298081 0.0 0.0
-1.9264904 3.33677926 0.0
0.0 0.0 18.90376084
S Zn
6 6
direct
0.33333333 0.66666667 0.95815962 
0.66666667 0.33333333 0.45815962 
0.66666667 0.33333333 0.79164642 
0.33333333 0.66666667 0.29164642 
0.0 0.0 0.62511996 
0.0 0.0 0.12511996 
0.33333333 0.66666667 0.83328055 
0.66666667 0.33333333 0.33328055 
0.66666667 0.33333333 0.66677831 
0.33333333 0.66666667 0.16677831 
0.0 0.0 0.50001514 
0.0 0.0 1.514e-05 
