System
1.0
4.54115756 0.0 0.0
0.0 4.54115756 0.0
0.0 0.0 4.54115756
Sc In
3 1
direct
0.5 0.5 0.0 
0.5 0.0 0.5 
0.0 0.5 0.5 
0.0 0.0 0.0 
