System
1.0
5.6997248 2.003e-05 -1.455e-05
2.007e-05 5.69971322 5.863e-05
-1.448e-05 5.876e-05 5.69971595
Fe Co
9 7
direct
0.24999577 0.24999542 0.24999536 
0.75000982 0.2499895 0.24998912 
0.75000976 0.75001086 0.75000965 
0.24999012 0.75001126 0.24998957 
0.24999187 0.24999059 0.75000854 
0.24999626 0.75000473 0.75000308 
0.75000373 0.75000533 0.24999569 
0.75000114 0.24999793 0.75000145 
0.50000426 0.49998507 0.50001933 
0.50000315 9.91e-06 0.99998719 
-2.92e-06 0.49999066 0.50001211 
-3.07e-06 9.98e-06 0.50001294 
-3.11e-06 0.49999003 0.99998718 
0.50000296 0.49999069 0.99998812 
-2.7e-06 8.85e-06 0.99998855 
0.50000295 9.17e-06 0.50001212 
