System
1.0
3.36769844 0.0 0.0
-1.68384922 2.9165124 0.0
0.0 0.0 12.21191547
O Ga In
6 2 2
direct
0.33333333 0.66666667 0.41266724 
0.66666667 0.33333333 0.91266724 
0.66666667 0.33333333 0.58733276 
0.33333333 0.66666667 0.08733276 
0.0 0.0 0.25 
0.0 0.0 0.75 
0.66666667 0.33333333 0.75 
0.33333333 0.66666667 0.25 
0.0 0.0 0.5 
0.0 0.0 0.0 
