System
1.0
-5.69e-06 3.05216008 3.05215963
3.05216523 -5.98e-06 3.05215979
3.05216543 3.05216047 -6.03e-06
Cu Pd Au
2 1 1
direct
0.50000094 0.50000185 0.49999701 
-2.56e-06 0.99999895 0.99999864 
0.74999988 0.74999596 0.75000422 
0.25000075 0.25000224 0.24999913 
