System
1.0
7.6590927 0.0 0.0
-3.82954635 6.63296885 0.0
0.0 0.0 3.90699078
Sc Fe Sb
6 1 2
direct
0.61077356 0.0 0.5 
0.38922644 0.38922644 0.5 
0.0 0.61077356 0.5 
0.23206918 0.0 0.0 
0.76793082 0.76793082 0.0 
0.0 0.23206918 0.0 
0.0 0.0 0.5 
0.33333333 0.66666667 0.0 
0.66666667 0.33333333 0.0 
