System
1.0
0.0 3.18486249 3.18486249
3.18486249 0.0 3.18486249
3.18486249 3.18486249 0.0
Sc Ta Ru
1 1 2
direct
0.249999 0.249999 0.249999 
0.749999 0.749999 0.749999 
0.0 0.0 0.0 
0.5 0.5 0.5 
