System
1.0
4.38479006 0.0 0.0
-2.19239503 3.79733959 0.0
0.0 0.0 8.06269448
Li P Sr
2 2 2
direct
0.33333333 0.66666667 0.25 
0.66666667 0.33333333 0.75 
0.33333333 0.66666667 0.75 
0.66666667 0.33333333 0.25 
0.0 0.0 0.0 
0.0 0.0 0.5 
