System
1.0
3.51187614 3.51187614 3.51187614
3.51187614 -3.51187614 -3.51187614
-3.51187614 3.51187614 -3.51187614
Na P S
3 1 4
direct
0.0 0.5 0.5 
0.5 0.5 0.0 
0.5 0.0 0.5 
0.0 0.0 0.0 
0.34029159 0.0 0.0 
0.65970841 0.65970841 0.65970841 
0.0 0.0 0.34029159 
0.0 0.34029159 0.0 
