System
1.0
3.16040277 0.0 0.0
-1.58020139 2.73698909 0.0
0.0 0.0 24.3653781
C Al Nb
6 2 8
direct
0.66666667 0.33333333 0.39130031 
0.33333333 0.66666667 0.89130031 
0.33333333 0.66666667 0.60869969 
0.0 0.0 0.0 
0.66666667 0.33333333 0.10869969 
0.0 0.0 0.5 
0.66666667 0.33333333 0.75 
0.33333333 0.66666667 0.25 
0.0 0.0 0.34276645 
0.0 0.0 0.84276645 
0.0 0.0 0.65723355 
0.0 0.0 0.15723355 
0.33333333 0.66666667 0.44481906 
0.66666667 0.33333333 0.94481906 
0.66666667 0.33333333 0.55518094 
0.33333333 0.66666667 0.05518094 
