System
1.0
4.9799659 0.0 2.87518465
1.65998863 4.69515688 2.87518465
0.0 0.0 5.75036931
Pd Ba
4 2
direct
0.5 0.0 0.5 
0.0 0.5 0.5 
0.5 0.5 0.5 
0.5 0.5 0.0 
0.125 0.125 0.125 
0.875 0.875 0.875 
