System
1.0
3.82030785 0.00028012 -3.57e-06
-1.90991162 3.30806385 0.0
6.03e-06 3.29e-06 5.99813152
Ce O
2 4
direct
0.66674057 0.33337028 0.74861025 
0.33325943 0.66662972 0.25138975 
0.66662924 0.33331512 0.25377168 
0.33337076 0.66668488 0.74622832 
0.0 0.0 0.0 
0.0 0.0 0.5 
