System
1.0
0.0 3.08324634 3.08324634
3.08324634 0.0 3.08324634
3.08324634 3.08324634 0.0
Hf Zn Cu
1 1 2
direct
0.249999 0.249999 0.249999 
0.75 0.75 0.75 
0.499999 0.499999 0.499999 
0.0 0.0 0.0 
