System
1.0
8.04439186 0.0 0.0
0.0 8.04439186 0.0
0.0 0.0 15.54728029
Si La
16 20
direct
0.07997221 0.7110555 0.44075281 
0.92002779 0.2889445 0.94075281 
0.7110555 0.07997221 0.55924719 
0.2110555 0.42002779 0.19075281 
0.7889445 0.57997221 0.69075281 
0.42002779 0.2110555 0.80924719 
0.57997221 0.7889445 0.30924719 
0.2889445 0.92002779 0.05924719 
0.82912085 0.80530505 0.7956986 
0.17087915 0.19469495 0.2956986 
0.80530505 0.82912085 0.2043014 
0.30530505 0.67087915 0.5456986 
0.69469495 0.32912085 0.0456986 
0.67087915 0.30530505 0.4543014 
0.32912085 0.69469495 0.9543014 
0.19469495 0.17087915 0.7043014 
0.37444459 0.47945166 0.37362414 
0.87444459 0.02054834 0.37637586 
0.97945166 0.12555541 0.12362414 
0.02054834 0.87444459 0.62362414 
0.62555541 0.52054834 0.87362414 
0.47945166 0.37444459 0.62637586 
0.52054834 0.62555541 0.12637586 
0.12555541 0.97945166 0.87637586 
0.98875454 0.62022791 0.05295769 
0.01124546 0.37977209 0.55295769 
0.62022791 0.98875454 0.94704231 
0.12022791 0.51124546 0.80295769 
0.87977209 0.48875454 0.30295769 
0.51124546 0.12022791 0.19704231 
0.48875454 0.87977209 0.69704231 
0.37977209 0.01124546 0.44704231 
0.69283626 0.69283626 0.5 
0.80716374 0.19283626 0.75 
0.19283626 0.80716374 0.25 
0.30716374 0.30716374 0.0 
