System
1.0
-3.20382433 -3.20382433 -0.0
-3.20382433 0.0 -3.20382433
0.0 -3.20382433 -3.20382433
Ti Mn Sn
2 1 1
direct
-0.0 0.0 0.0 
0.75 0.75 0.75 
0.5 0.5 0.5 
0.25 0.25 0.25 
