System
1.0
4.03567425 0.0 -0.86219127
-0.2286444 4.4308597 -1.07021995
-0.01057977 0.02315911 9.82650139
Al Ca Ge
2 3 2
direct
0.93198542 0.43188566 0.86397083 
0.06801458 0.56811434 0.13602917 
0.5 0.0 0.0 
0.18577269 0.18578653 0.37154537 
0.81422731 0.81421347 0.62845463 
0.35400583 0.35397414 0.70801166 
0.64599417 0.64602586 0.29198834 
