System
1.0
-0.0 3.98393048 3.98393048
3.98393048 0.0 3.98393048
3.98393048 3.98393048 -0.0
Rb Na Sb
1 2 1
direct
0.25 0.25 0.25 
0.0 -0.0 0.0 
0.5 0.5 0.5 
0.75 0.75 0.75 
