System
1.0
3.96340094 0.0 0.0
-1.98170047 3.4324059 0.0
0.0 0.0 5.14381977
Ni Sb
2 2
direct
0.0 0.0 0.0 
0.0 0.0 0.5 
0.33333333 0.66666667 0.25 
0.66666667 0.33333333 0.75 
