System
1.0
0.0 6.08284958 0.0
6.08284958 0.0 0.0
3.04142428 3.04142428 -5.239228
Li W S
2 1 4
direct
0.5 0.0 0.0 
0.0 0.5 0.0 
0.0 0.0 0.0 
0.66860607 0.09351294 0.23787999 
0.33139393 0.33139393 0.76212001 
0.09351294 0.66860607 0.23787999 
0.90648706 0.90648706 0.76212001 
