System
1.0
-6.5e-07 3.19995426 3.19995902
3.19995133 2.73e-06 3.19995565
3.19995297 3.19995252 1.11e-06
Sc Ni Os
2 1 1
direct
-2.2e-07 -3e-07 3.3e-07 
0.50000051 0.50000088 0.50000072 
0.250001 0.25000063 0.2499995 
0.74999971 0.74999979 0.75000044 
