System
1.0
4.39917436 0.0 0.0
-2.19958718 3.80979675 0.0
0.0 0.0 6.7796652
Ga Zr Au
2 2 2
direct
0.66666667 0.33333333 0.21513489 
0.66666667 0.33333333 0.78486511 
0.0 0.0 0.5 
0.0 0.0 0.0 
0.33333333 0.66666667 0.71500767 
0.33333333 0.66666667 0.28499233 
