System
1.0
0.0 0.0 -5.41705497
-2.72800652 -4.72513652 0.0
-2.72775169 4.72498935 0.0
Zr Al
4 3
direct
0.25754864 0.66661883 0.33330937 
0.74245136 0.66661883 0.33330937 
0.5 0.33336039 0.6667254 
0.5 2.691e-05 0.99996992 
0.0 0.16664628 0.83331386 
0.0 0.16666392 0.33332923 
0.0 0.66666484 0.83334286 
