System
1.0
0.0 3.12938045 3.12938045
3.12938045 0.0 3.12938045
3.12938045 3.12938045 0.0
Ti Tc Pt
2 1 1
direct
0.0 0.0 0.0 
0.499999 0.499999 0.499999 
0.749999 0.749999 0.749999 
0.25 0.25 0.25 
