System
1.0
3.1675138 0.0 0.0
-1.5837569 2.74314742 0.0
0.0 0.0 14.53348001
C In Ta
2 2 4
direct
0.0 0.0 0.0 
0.0 0.0 0.5 
0.33333333 0.66666667 0.75 
0.66666667 0.33333333 0.25 
0.33333333 0.66666667 0.08297177 
0.66666667 0.33333333 0.58297177 
0.66666667 0.33333333 0.91702823 
0.33333333 0.66666667 0.41702823 
