System
1.0
0.0 3.48566382 3.48566382
3.48566382 0.0 3.48566382
3.48566382 3.48566382 0.0
Sc Ag Hg
2 1 1
direct
0.0 0.0 0.0 
0.5 0.5 0.5 
0.250001 0.250001 0.250001 
0.75 0.75 0.75 
