System
1.0
3.93440923 0.0 0.0
0.0 3.93440923 0.0
0.0 0.0 8.66758342
Cu Zr Sb
1 2 3
direct
0.0 0.0 0.0 
0.0 0.5 0.7376123 
0.5 0.0 0.2623877 
0.5 0.5 0.0 
0.0 0.5 0.37862624 
0.5 0.0 0.62137376 
