System
1.0
0.0 -2.26528592 -3.87553043
-0.0 -2.26528592 3.87553043
-4.59297107 0.0 0.0
Ga
4
direct
0.65581788 0.34418212 0.41896267 
0.34418212 0.65581788 0.58103733 
0.84418212 0.15581788 0.91896267 
0.15581788 0.84418212 0.08103733 
