System
1.0
4.02526769 0.0 -1.48217888
0.0 4.30099671 0.0
0.0626837 0.0 6.37718963
Se Sn
2 2
direct
0.35541267 0.75 0.71082534 
0.64458733 0.25 0.28917466 
0.12719374 0.75 0.25438748 
0.87280626 0.25 0.74561252 
