System
1.0
4.67080529 0.00517727 2.31317669
1.43791117 4.44396898 2.31317669
0.00710844 0.00517727 5.21221239
B N
13 2
direct
0.19677473 0.6802587 0.19677473 
0.19677473 0.19677473 0.6802587 
0.6802587 0.19677473 0.19677473 
0.3197413 0.80322527 0.80322527 
0.80322527 0.3197413 0.80322527 
0.80322527 0.80322527 0.3197413 
0.99541759 0.66910802 0.99541759 
0.99541759 0.99541759 0.66910802 
0.66910802 0.99541759 0.99541759 
0.33089198 0.00458241 0.00458241 
0.00458241 0.33089198 0.00458241 
0.00458241 0.00458241 0.33089198 
0.5 0.5 0.5 
0.61514541 0.61514541 0.61514541 
0.38485459 0.38485459 0.38485459 
