System
1.0
5.11813659 0.0 0.0
0.0 5.74306556 -2.48889665
0.0 0.01667631 7.88816033
P Ag
8 4
direct
0.40643188 0.6730435 0.08399765 
0.90643188 0.8269565 0.41600235 
0.59356812 0.3269565 0.91600235 
0.09356812 0.1730435 0.58399765 
0.76813874 0.42284892 0.69957726 
0.26813874 0.07715108 0.80042274 
0.23186126 0.57715108 0.30042274 
0.73186126 0.92284892 0.19957726 
0.04684179 0.75788825 0.90203466 
0.54684179 0.74211175 0.59796534 
0.95315821 0.24211175 0.09796534 
0.45315821 0.25788825 0.40203466 
