System
1.0
3.87842852 0.0 0.0
0.0 3.87842852 0.0
0.0 0.0 3.87842852
V Au
3 1
direct
0.5 0.5 0.0 
0.5 0.0 0.5 
0.0 0.5 0.5 
0.0 0.0 0.0 
