System
1.0
0.0 3.62284449 3.62284449
3.62284449 0.0 3.62284449
3.62284449 3.62284449 0.0
Sm Mg Ir
2 1 1
direct
0.0 0.0 0.0 
0.499999 0.499999 0.499999 
0.75 0.75 0.75 
0.25 0.25 0.25 
