System
1.0
-1.8633683 1.8633683 4.07810388
1.8633683 -1.8633683 4.07810388
1.8633683 1.8633683 -4.07810388
Zn Ir
3 1
direct
0.749999 0.25 0.499999 
0.25 0.749999 0.499999 
0.5 0.5 0.0 
0.0 0.0 0.0 
