System
1.0
5.77930009 -0.00109804 -0.00127788
-2.8906007 5.00695528 0.00060525
-0.0015092 -7.199e-05 6.33070087
W N
3 6
direct
0.99996942 0.47451167 0.666616 
0.52537509 0.52535617 -0.00016655 
0.47461079 0.99994795 0.33359157 
0.16343451 0.74228108 0.46418359 
0.25806908 0.4212841 0.7977219 
0.57876902 0.8366576 0.13077619 
0.4211495 0.25785141 0.20243597 
0.83655669 0.57885055 0.86926407 
0.74206591 0.16325948 0.53561128 
