System
1.0
-1.74484871 1.74484871 4.32921608
1.74484871 -1.74484871 4.32921608
1.74484871 1.74484871 -4.32921608
Ti N
3 1
direct
0.749999 0.25 0.499999 
0.25 0.749999 0.499999 
0.5 0.5 0.0 
0.0 0.0 0.0 
