System
1.0
5.13438813 0.0 0.0
0.0 8.85650436 0.0
0.0 0.0 9.74950261
Ir F
4 24
direct
0.59412798 0.25 0.12693746 
0.90587202 0.25 0.62693746 
0.40587202 0.75 0.87306254 
0.09412798 0.75 0.37306254 
0.24967021 0.60022302 0.48174415 
0.25032979 0.89977698 0.98174415 
0.93899221 0.89956819 0.2641662 
0.19754627 0.25 0.51110093 
0.74967021 0.10022302 0.01825585 
0.56100779 0.89956819 0.7641662 
0.30245373 0.25 0.01110093 
0.24967021 0.89977698 0.48174415 
0.75032979 0.39977698 0.51825585 
0.43899221 0.39956819 0.2358338 
0.74967021 0.39977698 0.01825585 
0.80245373 0.75 0.48889907 
0.69754627 0.75 0.98889907 
0.25032979 0.60022302 0.98174415 
0.43899221 0.10043181 0.2358338 
0.06100779 0.39956819 0.7358338 
0.61339038 0.25 0.74231241 
0.56100779 0.60043181 0.7641662 
0.88660962 0.25 0.24231241 
0.11339038 0.75 0.75768759 
0.06100779 0.10043181 0.7358338 
0.93899221 0.60043181 0.2641662 
0.38660962 0.75 0.25768759 
0.75032979 0.10022302 0.51825585 
