System
1.0
0.0 3.60778731 3.60778731
3.60778731 0.0 3.60778731
3.60778731 3.60778731 0.0
Yb Zn Ga
2 1 1
direct
0.0 0.0 0.0 
0.5 0.5 0.5 
0.75 0.75 0.75 
0.25 0.25 0.25 
