System
1.0
4.59628628 0.0 0.0
-2.29814314 3.98050068 0.0
0.0 0.0 7.19482508
Sc Sn Au
2 2 2
direct
0.0 0.0 0.9681605 
0.0 0.0 0.4681605 
0.66666667 0.33333333 0.19922031 
0.33333333 0.66666667 0.69922031 
0.66666667 0.33333333 0.80751919 
0.33333333 0.66666667 0.30751919 
