System
1.0
6.07399126 0.0 0.0
0.0 6.33649289 0.0
0.0 0.0 7.26837242
P S Cu
2 8 6
direct
0.40182465 0.67429745 0.0 
0.90182465 0.32570255 0.5 
0.28665924 0.83217324 0.23731999 
0.78665924 0.16782676 0.26268001 
0.78129225 0.63532809 0.5 
0.28129225 0.36467191 0.0 
0.78665924 0.16782676 0.73731999 
0.28665924 0.83217324 0.76268001 
0.74692851 0.67877415 0.0 
0.24692851 0.32122585 0.5 
0.91198036 0.82471187 0.74699585 
0.41198036 0.17528813 0.75300415 
0.41198036 0.17528813 0.24699585 
0.91198036 0.82471187 0.25300415 
0.4034354 0.651465 0.5 
0.9034354 0.348535 0.0 
