System
1.0
0.0 0.0 -3.00410914
-2.36552819 -4.09721452 0.0
-2.36599986 4.09748684 0.0
Zr Ti
1 2
direct
0.0 0.99999003 0.0 
0.5 0.33330747 0.66670497 
0.5 0.6666025 0.33329503 
