System
1.0
3.84153569 0.0 0.0
0.0 4.35226731 0.0
0.0 0.0 4.35226731
Pd Hg
2 2
direct
0.5 0.5 0.0 
0.5 0.0 0.5 
0.0 0.5 0.5 
0.0 0.0 0.0 
