System
1.0
4.90342104 0.0 0.0
0.0 5.98913673 -2.65396785
0.0 0.02095534 6.55079118
Y Cd
2 6
direct
0.25 0.63621291 0.36378709 
0.75 0.36378709 0.63621291 
0.75 0.30974429 0.12148196 
0.25 0.69025571 0.87851804 
0.25 0.12148196 0.30974429 
0.75 0.87851804 0.69025571 
0.25 0.17537652 0.82462348 
0.75 0.82462348 0.17537652 
