System
1.0
2.9308511 0.0 0.0
-1.46542555 2.53821227 0.0
0.0 0.0 3.91914161
W N
1 2
direct
0.66668778 0.33337556 0.5 
6.11e-06 1.222e-05 0.81874925 
6.11e-06 1.222e-05 0.18125075 
