System
1.0
0.0 3.8472197 3.8472197
3.8472197 0.0 3.8472197
3.8472197 3.8472197 0.0
Yb Pr Cd
1 1 2
direct
0.75 0.75 0.75 
0.250001 0.250001 0.250001 
0.0 0.0 0.0 
0.500001 0.500001 0.500001 
