System
1.0
3.4893787 0.0 2.01459373
1.16312623 3.28981779 2.01459373
0.0 0.0 4.02918747
Mg S
1 1
direct
0.0 0.0 0.0 
0.25 0.25 0.25 
