System
1.0
5.24098061 0.0 0.0
0.0 4.77499379 -2.57462429
0.0 -0.00418194 5.70720219
V F
2 8
direct
0.5 0.5 0.0 
0.0 0.0 0.0 
0.80716472 0.33981118 0.07285565 
0.30716472 0.16018882 0.92714435 
0.58722992 0.34867688 0.66108737 
0.08722992 0.15132312 0.33891263 
0.41277008 0.65132312 0.33891263 
0.91277008 0.84867688 0.66108737 
0.69283528 0.83981118 0.07285565 
0.19283528 0.66018882 0.92714435 
