System
1.0
4.480581257583585 1.641055e-09 -0.0
-2.2402911259562948 3.8802980321570226 0.0
0.0 0.0 7.12970149808446
Lu Cu Sn
2 2 2
direct
0.0 0.0 0.496707894457227 
0.0 0.0 0.9967078944572267 
0.3333330000000032 0.6666669999999968 0.3281957787561636 
0.6666669999999968 0.3333330000000032 0.8281957787561638 
0.6666669999999968 0.3333330000000032 0.2276563267866021 
0.3333330000000032 0.6666669999999968 0.727656326786602 
