System
1.0
5.523522578819409 -0.1404801960921568 -1.2939562720746416
-0.199543008948855 5.539883670847361 -1.4167239631378552
0.0469706327615266 0.0502513215139378 6.380494116194464
Li Mn Co O
7 2 3 12
direct
0.8224477981556473 0.8329565085585947 0.32358362557663867 
0.658210617074146 0.16454668688610072 0.6747451051425173 
0.4945134985020002 0.5055392093335797 0.9964153507708083 
0.33963729472346704 0.8343757188140348 0.33260710277955924 
0.18284464665744443 0.16351472275222062 0.6776323922383162 
0.0012581841870366994 0.4999983270167477 0.9959633010341976 
0.4981491525173254 0.997761110217879 0.9962050864822126 
0.0036498607747013014 0.9950828849528716 0.9974285821267949 
0.8264752950080468 0.3300602501902808 0.33127557919538597 
0.3324960240437277 0.33064706249396336 0.33098821762685526 
0.1698505685256307 0.6704018408503085 0.6688632319113303 
0.6657637585798483 0.6700499236626648 0.668118823146635 
0.9211434042393704 0.9016479274885484 0.6802159029465379 
0.07760352115270068 0.0972026417811434 0.32120786347864594 
0.9154445822597623 0.4323849172013308 0.6515314092241576 
0.7595727424131224 0.7589925989517098 0.9866156526958146 
0.5883028698386055 0.1083831796057294 0.34027615705029796 
0.41256792049544494 0.4389132684202366 0.6510377499569936 
0.23618679024101988 0.758980669083589 0.9896775067312279 
0.5854507211496451 0.5649030810879957 0.34381452276246344 
0.41673019785498533 0.8929475163084194 0.6625745230265613 
0.24010782313048326 0.2400480345686014 0.011931276684333686 
0.084911591530058 0.566110577943491 0.34944128057573115 
0.7666771369457829 0.24455234182995603 0.017849756835988464 
