System
1.0
7.387872795326217 1.3016815e-09 -2.612007313005025
-3.6939368957083865 6.398085475566242 -2.6120073130050256
-5.889046e-10 -1.0200128e-09 7.836022935694535
Pd S
16 7
direct
0.7523589453742849 0.7523589453742825 0.3374996492139007 
0.24764105462571667 0.5851407038395982 -1.0308317308677281e-14 
1.4127587988355117e-14 0.24764105462575833 0.5851407038396438 
0.33749964921385595 0.7523589453742382 0.7523589453742412 
0.7523589453742481 0.3374996492138691 0.752358945374249 
0.2476410546257533 1.17e-14 0.5851407038396416 
-1.0860000000000001e-13 -1.0860000000000001e-13 0.2322332360954522 
9.531264666406969e-14 0.23223323609567334 3.3115627401888154e-14 
0.2322332360957596 1.385e-13 7.630417429787584e-14 
0.7677667639042538 0.7677667639042969 0.7677667639044384 
0.5851407038395852 0.24764105462571384 -1.5638549477636825e-14 
0.41485929616041345 0.4148592961604056 0.6625003507861251 
0.6625003507861406 0.4148592961603916 0.4148592961603696 
-1.0935696792557792e-14 0.5851407038396125 0.24764105462574534 
0.5851407038395965 -1.88e-14 0.24764105462573754 
0.4148592961604019 0.6625003507861381 0.41485929616037204 
0.31208446077989277 0.3120844607798797 0.312084460779837 
0.6879155392201032 -4.19e-14 -2.3091623494244866e-14 
-2.8754776337791554e-14 0.6879155392201294 -9.962655402672993e-15 
3.280000000000001e-14 3.280000000000001e-14 0.687915539220196 
0.0 0.5 0.49999999999999994 
0.5 0.0 0.49999999999999994 
0.5 0.5 3.0774294730501704e-17 
