System
1.0
3.3971989791624218 0.0 0.0
0.0 3.3971989791624218 -0.0
-0.0 0.0 8.358064822863271
Na Be Hg
2 1 1
direct
0.0 0.0 0.9454885938699388 
0.5 0.5 0.3010041104178494 
0.0 0.0 0.5891930179960068 
0.5 0.5 0.6643142777162052 
