System
1.0
2.934473057976065 -5.082657236514947 0.0
2.934473057976065 5.082657236514947 -0.0
-0.0 -0.0 5.303773041084062
Sn Au
2 6
direct
0.3333330000000032 0.6666669999999968 0.25 
0.6666669999999968 0.33333300000000315 0.75 
0.16535788871909474 0.8346421112809049 0.75 
0.6692852225640255 0.8346421112831155 0.75 
0.16535788871688462 0.3307147774359747 0.75 
0.834642111280905 0.1653578887190948 0.25 
0.3307147774359747 0.1653578887168846 0.25 
0.8346421112831156 0.6692852225640253 0.25 
