System
1.0
4.434855147039995 -0.0 -0.0
0.0 4.434855147039995 0.0
0.0 0.0 10.408336436372885
Nd Al Au
2 4 4
direct
0.0 0.5 0.7519785152892561 
0.5 0.0 0.24802148471074392 
0.5 0.5 0.5 
0.0 0.0 0.5 
0.0 0.5 0.1303707027833337 
0.5 0.0 0.8696292972166663 
0.5 0.5 0.0 
0.0 0.0 0.0 
0.0 0.5 0.3707699720973424 
0.5 0.0 0.6292300279026575 
