System
1.0
4.750816600513602 0.0 -0.1724945965732725
0.0 3.673891328768652 0.0
-0.1858185856085072 0.0 5.651936255480112
I N
2 1
direct
-0.22671167633608677 0.0 -0.0085597484023387 
0.27584713607201533 0.0 0.5230208977304006 
0.35086419328512 0.0 -0.11446087021333401 
