System
1.0
2.7890832264039407 0.0 0.0
0.0 2.7890832264039407 -0.0
-0.0 0.0 7.621368506945997
Li Ti Be
1 2 1
direct
0.5 0.5 0.7040269054899216 
0.0 0.0 0.0159439177905551 
0.5 0.5 0.28054231342188146 
0.0 0.0 0.49948686329763464 
