System
1.0
5.428304014121896 -0.0 3e-16
1.1e-15 6.692138399047145 4e-16
-0.0 0.0 5.512620663904135
Mg Os N
4 4 8
direct
0.5972015742746138 0.8775703436529917 0.9994940265782438 
0.4027984257253859 0.1224296563470081 0.49949402657824393 
0.9027984257253862 0.3775703436529919 0.49949402657824393 
0.09720157427461398 0.6224296563470083 0.9994940265782438 
0.556185527507237 0.3422677124797706 0.0253301526113368 
0.443814472492763 0.6577322875202297 0.5253301526113368 
0.943814472492763 0.8422677124797703 0.5253301526113368 
0.056185527507237 0.1577322875202296 0.0253301526113368 
0.5473575234944061 0.39734724204212485 0.36669613845025506 
0.45264247650559364 0.6026527579578751 0.8666961384502548 
0.9526424765055939 0.8973472420421249 0.8666961384502548 
0.047357523494406396 0.1026527579578751 0.36669613845025506 
0.6111584622191192 0.8834561198007177 0.37847968236016716 
0.38884153778088076 0.1165438801992822 0.878479682360167 
0.8888415377808808 0.3834561198007178 0.878479682360167 
0.11115846221911908 0.6165438801992823 0.37847968236016716 
