System
1.0
3.9299025365080236 -1.0365504e-09 -0.0
-0.0 0.0 3.941651791131179
-1.9649507620926052 -8.285161338561256 -0.0
Tm Si Ni
2 4 2
direct
0.6049690216592869 0.25 0.2099370433185674 
0.3950309783407131 0.75 0.7900629566814326 
0.9601007194163976 0.25 0.9202004388328222 
0.0398992805836023 0.75 0.0797995611671779 
0.24956238311722662 0.25 0.4991257662344907 
0.7504376168827734 0.75 0.5008742337655092 
0.8243357403942293 0.25 0.6486714807882478 
0.1756642596057707 0.75 0.3513285192117523 
