System
1.0
4.255479762580795 0.0 3e-16
7e-16 4.255479762580795 3e-16
0.0 0.0 11.255324612150226
Ca Ga Au
2 7 1
direct
0.0 0.0 0.0023161389870299 
0.5 0.5 0.49969218478329 
0.0 0.5 0.2524004218321157 
0.5 0.0 0.7478765479840612 
0.5 0.0 0.2524004218321157 
0.0 0.5 0.7478765479840612 
0.0 0.0 0.6108642918268505 
0.0 0.0 0.3905715339847359 
0.5 0.5 0.8860095156732667 
0.5 0.5 0.1099933951124715 
