System
1.0
6.563657002244626 6.6036219e-09 3.7895290933737895
2.187885011808393 6.188274915089759 3.7895290933737886
4.1840143e-09 2.958545e-09 7.579059172249306
Ce Zr O
4 4 14
direct
0.0 0.5 0.5000000000000001 
0.5 0.5 0.5000000000000001 
0.5 0.5 3.6045606677774485e-17 
0.49999999999999994 0.0 0.5000000000000001 
0.0 0.0 0.5 
0.0 0.0 0.0 
0.0 0.5 1.8022803338887243e-17 
0.49999999999999994 0.0 4.5778378954516156e-17 
0.08854469417829144 0.6614553058217625 0.08854469417781806 
0.9114553058217082 0.3385446941782376 0.9114553058221821 
0.625 0.625 0.625 
0.6614553058219893 0.0885446941785185 0.08854469417759106 
0.9114553058215895 0.9114553058211353 0.33854469417835686 
0.6614553058217083 0.0885446941782377 0.661455305822182 
0.3749999999999999 0.375 0.3750000000000001 
0.3385446941780107 0.9114553058214815 0.9114553058224092 
0.08854469417841047 0.08854469417886449 0.6614553058216434 
0.08854469417801064 0.6614553058214816 0.6614553058224092 
0.3385446941784103 0.3385446941788645 0.9114553058216434 
0.6614553058215895 0.6614553058211354 0.08854469417835674 
0.3385446941782915 0.9114553058217624 0.3385446941778181 
0.9114553058219894 0.3385446941785186 0.33854469417759103 
