System
1.0
2.7466389741699397 -1.442021e-10 1.5857724671283682
0.9155463245873582 2.5895560824768324 1.5857724671283682
-4.078652e-10 -2.884042e-10 3.1715459356696223
Ta C
1 1
direct
0.0 0.0 0.0 
0.4999999999999999 0.5 0.5000000000000001 
