System
1.0
2.686567707855275 -0.0 -0.0
-0.0 2.686567707855275 -0.0
-1e-16 0.0 6.02024763842651
Li Be Tc
1 2 1
direct
0.5 0.5 0.5 
0.0 0.0 0.2626381428487019 
0.0 0.0 0.7373618571512979 
0.5 0.5 0.0 
