System
1.0
4.756179027559788 0.0 0.0
0.0 4.756179027559788 0.0
-0.0 0.0 8.302864674306297
K Mn Bi
2 2 2
direct
0.5 0.0 0.34537324695908134 
0.0 0.5 0.6546267530409186 
0.5 0.5 0.0 
0.0 0.0 0.0 
0.5 0.0 0.8026087272415207 
0.0 0.5 0.1973912727584793 
