System
1.0
3.4497171517597236 -5.975084984922273 -0.0
3.4497171517597236 5.975084984922273 0.0
-0.0 0.0 4.132111643212896
Er Al Ni Ge
3 3 1 2
direct
0.5972797061438194 0.5972797061438195 0.5 
0.4027202938561565 2.4064084058750268e-14 0.5 
2.403632848313464e-14 0.4027202938561565 0.5 
1.7208456881689926e-14 0.7708485462270445 0.0 
0.22915145377293816 0.2291514537729382 0.0 
0.7708485462270445 1.7263968032921184e-14 0.0 
0.0 0.0 0.5 
0.33333300000000315 0.6666669999999968 0.0 
0.6666669999999968 0.3333330000000032 0.0 
