System
1.0
8.664965237254558 0.0 0.0
0.0 9.861907074323494 -0.0269740834139106
0.0 -0.0160196697023864 16.055329900407568
K Sn Sb
20 4 12
direct
0.1626977117595443 0.5762179278068477 0.2585501424178243 
0.5032462646960133 0.3065841235321749 0.2422105079227992 
0.0032462646960135 0.19341587646782518 0.2577894920772007 
0.9967537353039867 0.8065841235321747 0.7422105079227992 
0.9808083066947757 0.830241910692497 0.4215843001916122 
0.48080830669477603 0.669758089307503 0.0784156998083878 
0.019191693305224095 0.1697580893075028 0.5784156998083878 
0.5191916933052243 0.3302419106924972 0.9215843001916123 
0.49377961166528694 0.6963471344160055 0.4112616550269342 
0.9937796116652865 0.8036528655839946 0.0887383449730658 
0.4967537353039865 0.6934158764678253 0.7577894920772009 
0.006220388334713 0.19634713441600588 0.9112616550269347 
0.3244000773355964 0.0793013192817073 0.078761596621982 
0.8244000773355962 0.4206986807182926 0.421238403378018 
0.6755999226644038 0.9206986807182924 0.9212384033780173 
0.17559992266440347 0.5793013192817074 0.5787615966219827 
0.3373022882404557 0.0762179278068473 0.7585501424178237 
0.5062203883347133 0.303652865583994 0.5887383449730654 
0.8373022882404558 0.42378207219315267 0.7414498575821763 
0.6626977117595441 0.9237820721931523 0.2414498575821758 
0.644241599319603 0.9256634474768911 0.5883138243095087 
0.1442415993196027 0.5743365525231088 0.9116861756904913 
0.3557584006803973 0.0743365525231088 0.41168617569049104 
0.8557584006803969 0.42566344747689144 0.088313824309509 
0.7373276377153 0.0818945178226409 0.7313031088684876 
0.2607213752257126 0.8482128981820917 0.918871321579153 
0.7607213752257129 0.6517871018179083 0.581128678420847 
0.739278624774287 0.1517871018179088 0.0811286784208472 
0.2392786247742872 0.3482128981820908 0.4188713215791529 
0.1953373599067554 0.4176970039722772 0.06588059412797331 
0.6953373599067553 0.0823029960277228 0.4341194058720267 
0.8046626400932447 0.5823029960277228 0.9341194058720269 
0.3046626400932446 0.917697003972277 0.5658805941279731 
0.2626723622847005 0.918105482177359 0.2686968911315123 
0.7626723622846999 0.5818945178226409 0.2313031088684876 
0.23732763771529994 0.4181054821773593 0.7686968911315124 
