System
1.0
2.5190915128522122 -3.3217476271886817 0.0
2.5190915128522122 3.3217476271886817 0.0
0.0 0.0 3.3828379632938637
Ti B O
1 1 4
direct
0.5000004255604082 0.5000004255604082 0.4999997104143148 
0.0 0.0 0.0 
0.26031731642803535 0.2603173164280354 0.0 
0.21971666954169738 0.7802841815791197 0.4999997104143148 
0.7802841815791196 0.21971666954169744 0.4999997104143148 
0.7396835346927876 0.7396835346927877 0.0 
