System
1.0
3.1826399779144374 -0.0 -0.0
0.0 3.1826399779144374 -0.0
-0.0 -0.0 6.461678358453859
Be Si Ge
1 2 1
direct
0.0 0.0 0.45891916176400954 
0.0 0.0 0.09007359453735651 
0.5 0.5 0.2754967714933306 
0.5 0.5 0.6755094722053052 
