System
1.0
2.824539514787423 0.0 0.0
0.0 4.118197694175646 0.0
0.0 0.0 6.0937897309589015
Ta O F
2 2 2
direct
0.5000001831489769 0.5000002577070148 0.6319385830066481 
0.0 0.0 0.3680606659949202 
0.0 0.5000002577070148 0.3482364336531469 
0.5000001831489769 0.0 0.6517628153484145 
0.0 0.5000002577070148 0.8893073498147231 
0.5000001831489769 0.0 0.11069189918684572 
