System
1.0
6.629220424749209 0.0056827807892652 -3.8901349198061768
-1.6604101056247749 5.802439851099142 -4.759671783191946
-0.0207701701275411 -0.0056827807894118 7.6863048166360946
Hf As Ru
6 6 6
direct
0.46611288892980113 0.6878265686171666 0.7217136796873724 
0.5338871110701987 0.255600790757571 0.22171367968737243 
0.7495832152005769 0.834271379019911 0.584688163819334 
0.2504167847994229 0.8351059486187544 0.08468816381933411 
0.0523916750053726 0.2585806120841652 0.7061889370787924 
0.947608324994627 0.6537972620734201 0.20618893707879254 
0.8368251790325427 0.5870824021131154 0.7573246956294674 
0.16317482096745678 0.920499516596924 0.7502572230805791 
0.6702422935163521 0.9204995165969242 0.25732469562946725 
0.32975770648364783 0.5870824021131155 0.25025722308057924 
0.7239126538241244 0.22414198776648722 0.00022933394236278537 
0.2760873461758757 0.2763156801182339 0.5002293339423628 
0.5 0.49980437322464377 0.9998043732246434 
2.397964298885495e-17 0.49980437322464377 0.4998043732246437 
0.09401742721018648 0.2525382602184594 0.1010727605291837 
0.9059825727898136 0.007055333318997201 0.15852083300827302 
0.34853450031072447 0.0070553333189972 0.6010727605291839 
0.6514654996892757 0.2525382602184594 0.658520833008273 
