System
1.0
4.752623458456731 0.0041299754217565 3e-16
-0.0891716537454674 4.7517886327927625 3e-16
0.0 -0.0 3.0176195290038805
Ta Ti O
1 1 4
direct
0.0 0.0 0.0 
0.5 0.49999999999999994 0.5 
0.2011710592777513 0.7988289407222485 0.5 
0.7988289407222484 0.20117105927775128 0.5 
0.3013996220847085 0.3013996220847085 0.0 
0.6986003779152915 0.6986003779152916 0.0 
