System
1.0
2.3233264613291826 0.0032421392752065 2.8015744713243738
1.0127731531786388 2.09096851644128 2.8015744368253896
0.0051649212794011 0.003242131234563 3.6395933892489056
C
2
direct
0.16661221439050244 0.16661221439151366 0.16661221439153567 
0.8333877856094972 0.8333877856084861 0.8333877856084646 
