System
1.0
0.0 3.43831737413971 3.43831737413971
3.43831737413971 -0.0 3.43831737413971
3.43831737413971 3.43831737413971 -0.0
Er Zn Tc
2 1 1
direct
0.0 0.0 0.0 
0.49999900000000247 0.49999900000000247 0.49999900000000247 
0.7499999999999999 0.7499999999999999 0.7499999999999999 
0.2500009999999975 0.2500009999999975 0.2500009999999975 
