System
1.0
5.749935079663977 -1e-16 3e-16
9e-16 5.749935079663977 3e-16
-0.0 -0.0 8.12806010858028
Mn Zn Fe O
1 3 8 16
direct
0.5 0.5 0.0 
0.0 0.0 0.5 
0.5 0.0 0.7479181054774894 
0.0 0.5 0.2520818945225106 
0.0 0.74686474883357 0.8768068809410712 
0.5 0.2515619355706946 0.3713250320937933 
0.74686474883357 0.0 0.12319311905892871 
0.2515619355706946 0.5 0.6286749679062065 
0.25313525116643 0.0 0.12319311905892871 
0.0 0.25313525116643 0.8768068809410712 
0.5 0.7484380644293054 0.3713250320937933 
0.7484380644293054 0.5 0.6286749679062065 
0.5 0.2374820695544176 0.1283747097349561 
0.7625179304455824 0.5 0.8716252902650439 
0.2774258732975209 0.0 0.3590385532042171 
0.2374820695544176 0.5 0.8716252902650439 
0.7225741267024793 0.0 0.3590385532042171 
0.0 0.7225741267024793 0.6409614467957828 
0.0 0.22215804386692042 0.1132231915688789 
0.0 0.7778419561330795 0.1132231915688789 
0.22215804386692042 0.0 0.8867768084311214 
0.7244943631156188 0.5 0.390898653142248 
0.7778419561330795 0.0 0.8867768084311214 
0.2755056368843817 0.5 0.390898653142248 
0.5 0.7625179304455824 0.1283747097349561 
0.5 0.2755056368843817 0.6091013468577521 
0.5 0.7244943631156188 0.6091013468577521 
0.0 0.2774258732975209 0.6409614467957828 
