System
1.0
2.836480105979638 4.8403274e-09 1.6376426233638999
0.945493044453555 2.6742588349479224 1.6376426233638999
0.0 0.0 3.2752852467277997
Na F
1 1
direct
0.0 0.0 0.0 
0.5 0.5 0.5 
