System
1.0
10.485218097879391 1.381500455e-07 -0.0
-5.242609168581136 9.080464636015344 0.0
-0.0 0.0 6.032761443371964
Sm Si Cu Se
6 2 2 14
direct
0.6439411421265657 0.7738097755851526 0.7446435017215024 
0.2261902244148866 0.8701313665415421 0.7446435017215024 
0.3560588632310573 0.22619024647575173 0.2446434536051735 
0.8701313832447406 0.6439411367690719 0.2446434536051735 
0.1298686334585475 0.3560588578733055 0.7446435017215024 
0.7738097535242096 0.1298686167551689 0.2446434536051735 
0.6666669999999968 0.3333330000000032 0.8318972947810397 
0.0 0.0 0.7103068767787489 
0.3333330000000032 0.6666669999999968 0.3318934279815006 
0.0 0.0 0.2103182788573352 
0.16423468913141043 0.9047095340272009 0.22417191938916453 
0.580845952579424 0.47863294544896245 0.983584560514922 
0.478633271611043 0.8977875110706564 0.4835850843565356 
0.09529046597290339 0.2595251551039741 0.22417191938916453 
0.740474844895693 0.8357653108688181 0.22417191938916453 
0.4191542394596271 0.5213667283887727 0.4835850843565356 
0.6666669999999968 0.3333330000000032 0.4560884608658642 
0.3333330000000032 0.6666669999999968 0.9560919061191234 
0.8357654605007503 0.095290536699003 0.7241713986181648 
0.9047094633008936 0.7404749238019682 0.7241713986181648 
0.5213670545512231 0.1022130071306607 0.983584560514922 
0.8977869928693527 0.4191540474203769 0.983584560514922 
0.259525076198364 0.1642345394990216 0.7241713986181648 
0.10221248892932977 0.5808457605405708 0.4835850843565356 
