System
1.0
6.170118904786934 -0.0 0.0
-0.0 6.856701034557162 0.0
0.0 0.0 9.343132008524005
Dy Co
12 4
direct
0.1420881070414335 0.45861282356090116 0.75 
0.6758408986277209 0.3245903564769095 0.9328334227385543 
0.35791189295856646 0.958612823560901 0.75 
0.8579118929585664 0.5413871764390988 0.25 
0.6420881070414336 0.0413871764390988 0.25 
0.1758408986277208 0.1754096435230905 0.4328334227385545 
0.8241591013722791 0.8245903564769094 0.5671665772614457 
0.1758408986277208 0.1754096435230905 0.0671665772614455 
0.8241591013722791 0.8245903564769094 0.9328334227385543 
0.6758408986277209 0.3245903564769095 0.5671665772614457 
0.3241591013722791 0.6754096435230905 0.0671665772614455 
0.3241591013722791 0.6754096435230905 0.4328334227385545 
0.5515241060771914 0.6127401339893769 0.75 
0.9484758939228086 0.1127401339893771 0.75 
0.0515241060771914 0.887259866010623 0.25 
0.4484758939228086 0.38725986601062284 0.25 
