System
1.0
3.3778824684827637 0.0 0.0
0.0 3.3778824684827637 0.0
-0.0 0.0 6.632201278667024
Be Sb Se
2 1 1
direct
0.0 0.0 0.0001979939230423 
0.5 0.5 0.21388172724267906 
0.0 0.0 0.39358460609322765 
0.5 0.5 0.8923346727410536 
