System
1.0
9.298121904098332 0.0 0.0
-4.649060952049166 8.052410148657398 0.0
-0.0 -0.0 8.297050718698358
K W Cl
2 6 18
direct
0.33333300000000327 0.6666669999999969 0.5 
0.6666669999999968 0.3333330000000032 0.5 
0.8152116487400723 0.8152116487395611 0.873103060322841 
0.1847883512594176 0.0 0.873103060322841 
0.8152116487405824 0.0 0.126896939677159 
0.1847883512599281 0.1847883512604388 0.126896939677159 
5.106054468129173e-13 0.1847883512604388 0.873103060322841 
-5.105915690251095e-13 0.8152116487395611 0.126896939677159 
0.2054270254002095 0.2054270254007941 0.6766145395037008 
0.784595879814835 0.2154041201893316 0.0 
0.21540412018933158 0.4308082303786552 0.0 
-5.846434447676074e-13 0.7945729745992058 0.6766145395037008 
0.4023449254387001 0.4023449254409558 0.3078505559236407 
2.2558066525846243e-12 0.4023449254409558 0.6921494440763593 
0.5976550745635558 0.0 0.3078505559236407 
-2.2558066525846243e-12 0.5976550745590443 0.3078505559236407 
0.21540412018516547 0.7845958798106684 0.0 
0.7945729746003753 0.0 0.6766145395037008 
0.5691917696255109 0.7845958798106684 0.0 
5.846850781310309e-13 0.2054270254007941 0.32338546049629946 
0.7845958798106684 0.5691917696213451 0.0 
0.4308082303744892 0.2154041201893316 0.0 
0.5976550745612998 0.5976550745590443 0.6921494440763593 
0.40234492543644446 0.0 0.6921494440763593 
0.2054270253996248 0.0 0.32338546049629946 
0.7945729745997905 0.7945729745992058 0.32338546049629946 
