System
1.0
4.4573889925450345 -3.958938e-10 1.5028119385776457
2.228693994441929 6.985224620133067 0.7514059690914708
-0.0029552038968788 4.138e-13 7.370553037439702
V Si Sb
8 2 4
direct
0.20572150705500292 0.7091311712127298 0.8794258146774694 
0.9148526782676372 0.8794258146774748 0.29086882878735765 
0.2942784929451476 0.1205741853225575 0.2908688287873464 
0.7057215070548527 0.8794258146774425 0.7091311712126537 
0.4148526782675564 0.2908688287872813 0.8794258146775015 
0.5851473217324439 0.7091311712127186 0.1205741853224986 
0.08514732173236292 0.1205741853225252 0.7091311712126425 
0.794278492944997 0.2908688287872701 0.12057418532253089 
0.25 0.0 -4.333779104228643e-18 
0.75 0.0 -1.3592903971139039e-17 
0.14147906004294547 0.4999999999999868 0.2170418799139982 
0.3585209399569735 0.7829581200859392 0.5000000000000132 
0.6414790600430265 0.21704187991406082 0.4999999999999868 
0.8585209399570546 0.5000000000000132 0.7829581200860017 
