System
1.0
0.0 3.1449610420734717 3.1449610420734717
3.1449610420734717 0.0 3.1449610420734717
3.1449610420734717 3.1449610420734717 0.0
Zn Ga As
1 1 1
direct
0.0 0.0 0.0 
0.24999999999999997 0.24999999999999997 0.24999999999999997 
0.49999999999999994 0.49999999999999994 0.49999999999999994 
