System
1.0
3.3985895322580353 -8.0915e-12 -0.0
-1.6992947661930435 2.9432648720607393 0.0
0.0 -0.0 4.010125575598328
Mg H N
1 1 1
direct
0.3333320191837998 0.6666662753150945 0.0 
0.0 0.0 0.0 
0.666665288041699 0.3333331376575472 0.0 
