System
1.0
7.284764182773328 0.0034379726555859 -0.6092538847152694
-0.2354324109238696 7.147468373291124 -2.7748527310311357
0.0113039293812791 -0.0061712423816174 10.585796950339828
Rb Sb O
4 8 22
direct
0.7454687810469398 0.49188699687580273 0.9837749315792466 
0.005009454514114602 0.7334381597322795 0.4668768737593902 
0.2545312189530596 0.5081130031241967 0.016225068420753712 
0.9949905454858856 0.26656184026772084 0.5331231262406096 
0.43527564016782516 0.9166663328927972 0.34868985479992193 
0.9027015226316775 0.9277666353112519 0.8555375537096225 
0.6180048605224568 0.07569143510568141 0.1513802241956207 
0.38199513947754343 0.9243085648943189 0.8486197758043793 
0.4352748428406085 0.43202715687958243 0.34868972031376333 
0.5647243598321747 0.0833336671072036 0.6513101452000785 
0.09729847736832252 0.0722333646887482 0.1444624462903776 
0.564725157159391 0.5679728431204177 0.6513102796862369 
0.43030282846797824 0.6563470287718597 0.8242019774439435 
0.4302991039344121 0.16785139521809833 0.824201013666745 
0.3327860448936171 0.47623931774605804 0.5282640070641521 
0.3450455153689161 0.023914054591178104 0.0478265513480725 
0.6458131925606082 0.33993779870292695 0.6798796910007424 
0.8128622321918645 0.6714443794258442 0.7411050756856823 
0.3327861089993344 0.05202601300296221 0.5282643880037685 
-1.0866375139990034e-07 0.17160609799927892 -1.5451722375909086e-06 
0.18713776780813549 0.32855562057415605 0.2588949243143179 
0.49227169337546844 0.8335509548153338 0.6671047838812728 
0.507728306624531 0.16644904518466602 0.3328952161187274 
0.5697008960655879 0.8321486047819014 0.17579898633325491 
1.0866375139696271e-07 0.8283939020007216 1.5451722376477803e-06 
0.812862102919641 0.0696520384216312 0.7411019852693089 
0.3541868074393921 0.6600622012970737 0.32012030899925803 
0.6549544846310841 0.976085945408822 0.9521734486519274 
0.5696971715320212 0.34365297122814015 0.1757980225560563 
0.6672138910006662 0.9479739869970379 0.47173561199623143 
0.132621500280399 0.8810906373762113 0.7621905855844838 
0.6672139551063828 0.5237606822539421 0.47173599293584795 
0.18713789708035844 0.9303479615783689 0.2588980147306906 
0.8673784997196009 0.11890936262378901 0.2378094144155163 
