System
1.0
4.813153030146872 -0.0 3e-16
8e-16 4.813153030146872 3e-16
-0.0 0.0 4.813153030146872
Ho Bi
3 1
direct
0.0 0.49999999999999994 0.49999999999999994 
0.49999999999999994 0.0 0.49999999999999994 
0.49999999999999994 0.49999999999999994 0.0 
0.0 0.0 0.0 
