System
1.0
4.234605358199694 0.0 0.0
0.0 4.234605358199694 0.0
0.0 0.0 5.681263258404671
La Al B Ru
1 2 1 2
direct
0.0 0.0 0.5 
0.5 0.5 0.7457337406751781 
0.5 0.5 0.2542662593248218 
0.0 0.0 0.0 
0.5 0.0 0.0 
0.0 0.5 0.0 
