System
1.0
4.859156973513139 -0.0 3e-16
8e-16 4.859156973513139 3e-16
-0.0 0.0 4.859156973513139
Y Bi
3 1
direct
0.0 0.5 0.5 
0.5 0.0 0.5 
0.5 0.5 0.0 
0.0 0.0 0.0 
