System
1.0
-0.1785545943159418 3.8091495890488205 -2.189504159383405
-5.157846098618136 -0.03725568931602 -0.0212347307973896
-0.0206741846311166 0.0073721411229758 4.4258496318500375
Ag Br O
1 1 2
direct
0.5538736780793317 0.8671950115157994 0.6564971878856545 
0.886609145748074 0.9997734538226897 0.3203168505021131 
0.298523360836497 0.5032863210761671 0.019336988067320295 
0.9763138153361025 0.47089421358533917 0.8641589735449173 
