System
1.0
-0.0 3.356134517052928 3.356134517052928
3.356134517052928 0.0 3.356134517052928
3.356134517052928 3.356134517052928 0.0
Tl Co As
1 1 2
direct
0.5 0.5 0.5 
0.0 0.0 0.0 
0.7499999999999999 0.7499999999999999 0.7499999999999999 
0.25 0.25 0.25 
