System
1.0
8.881685644433666 -2.37734117e-08 5e-16
-4.440842555323076 7.6917655505983 5e-16
-0.0 -0.0 5.225640691667956
Fe I O
2 6 18
direct
0.33333333333333565 0.6666666666666642 0.6334126131761033 
0.6666666666666643 0.3333333333333357 0.1334126131761033 
0.3366893495148948 0.3109985198918347 0.5067884663822948 
0.9743091703782747 0.6633106504790975 0.5067884663822948 
0.02569082962172517 0.3366893495209027 0.0067884663822946 
0.3109985198931699 0.9743091703709319 0.0067884663822946 
0.6633106504851048 0.6890014801081651 0.0067884663822946 
0.6890014801068306 0.0256908296290681 0.5067884663822948 
0.4396408453120595 0.5662194108907601 0.8372674490843559 
0.5662194108943992 0.1265785655789084 0.33726744908435574 
0.8734214344176597 0.4396408453118517 0.33726744908435574 
0.21676865306759646 0.1659162569346683 0.24237541170927854 
0.9491476038662217 0.7832313469346688 0.24237541170927854 
0.050852396133777976 0.2167686530653308 0.7423754117092783 
0.7832313469324033 0.8340837430653321 0.7423754117092783 
0.8340837430661816 0.0508523961306624 0.24237541170927854 
0.4793549322810609 0.2002701934752112 0.9047631350987048 
0.4337805891056005 0.8734214344210915 0.8372674490843559 
0.2002701934731049 0.720915261196934 0.4047631350987044 
0.12657856558233987 0.5603591546881489 0.8372674490843559 
0.720915261192044 0.5206450677217229 0.9047631350987048 
0.27908473880795565 0.479354932278277 0.4047631350987044 
0.5206450677189394 0.7997298065247885 0.4047631350987044 
0.7997298065268952 0.2790847388030657 0.9047631350987048 
0.560359154687941 0.4337805891092401 0.33726744908435574 
0.1659162569338185 0.9491476038693373 0.7423754117092783 
