System
1.0
-3.82159261110888 1.1132836e-09 0.0
-0.0 -0.0 -4.489248578772421
-1.910796802754047 -5.51285996352495 -0.0
Ce Pd
2 2
direct
0.13652057671927975 0.75 0.7269588465613334 
0.8634794232807206 0.25 0.2730411534386668 
0.4081471074097478 0.75 0.1837067851801615 
0.5918528925902521 0.25 0.8162932148198389 
