System
1.0
3.941050679747059 0.0 -0.0
-0.0 3.941050679747059 -0.0
0.0 0.0 3.941050679747059
Ag N
3 1
direct
0.0 0.5 0.5 
0.5 0.0 0.5 
0.5 0.5 0.0 
0.0 0.0 0.0 
