System
1.0
0.0 6.316964036386991 -0.0135482445255288
5.846745069291657 0.0 0.0
0.0 -2.710090082312671 -6.3912687403826745
K Ho Be F
2 2 2 12
direct
0.5695132885950488 0.25 0.20714406052466158 
0.4304867114049513 0.75 0.7928559394753383 
0.8851012666191077 0.25 0.8213091676885369 
0.11489873338089232 0.75 0.1786908323114632 
0.2644211496433033 0.25 0.5343786049348884 
0.7355788503566967 0.75 0.4656213950651117 
0.2730932769307199 0.035693786151912 0.40177556062561953 
0.7269067230692802 0.9643062138480878 0.5982244393743804 
0.9576151566203467 0.75 0.42226579843384243 
0.8206315415656166 0.9981279596239658 0.040932283561904 
0.1793684584343834 0.0018720403760272002 0.959067716438096 
0.2730932769307199 0.464306213848088 0.40177556062561953 
0.8206315415656166 0.5018720403760343 0.040932283561904 
0.0423848433796533 0.25 0.5777342015661575 
0.7269067230692802 0.5356937861519122 0.5982244393743804 
0.4842457255109594 0.25 0.7446223890969811 
0.1793684584343834 0.49812795962397277 0.959067716438096 
0.5157542744890403 0.75 0.25537761090301886 
