System
1.0
-1.3633982181174567 1.3633982181174567 5.524859113043026
1.3633982181174567 -1.3633982181174567 5.524859113043026
1.3633982181174567 1.3633982181174567 -5.524859113043026
Be Ag Mo
1 1 1
direct
0.3343801757192928 0.3343801757192928 0.0 
0.9806418207496288 0.9806418207496289 0.0 
0.6849780035310783 0.6849780035310783 0.0 
