System
1.0
2.8276257584268705 0.0501773614951632 -0.0058433462223981
-0.0992881106381154 5.717102002964732 -0.0705572213665763
0.0154211156494375 0.0348735437118707 8.002034668964942
Li Co O
5 3 8
direct
0.9997044930220599 0.24028773336811673 0.767762074258644 
0.49999999999999994 0.5 5.869466547459386e-19 
0.5 1.3788633946705256e-18 0.5 
0.0002955069779397073 0.7597122666318836 0.2322379257413563 
0.5 4.2604942858664554e-19 -9.911003215040129e-21 
-8.897468780089689e-05 0.7550637349028609 0.7564590741866267 
8.897468780100046e-05 0.2449362650971389 0.2435409258133734 
0.5 0.5 0.5 
0.5000657438519895 0.5231562410774319 0.737757387779462 
6.908048720047527e-07 0.7478812053397352 0.9819091003016278 
0.00012696205844260232 0.2749297466117076 0.4889121333013073 
0.5002230487772243 0.024864596242771802 0.2538566984024562 
0.49977695122277577 0.9751354037572282 0.7461433015975434 
-6.908048717983602e-07 0.2521187946602648 0.0180908996983721 
-0.0001269620584426011 0.7250702533882928 0.5110878666986929 
0.4999342561480103 0.4768437589225679 0.262242612220538 
