System
1.0
5.4399150100642535 -0.6414786633708538 0.5354098510391853
2.1644201896674926 5.031844079841075 0.5354098493819462
2.9719389467220845 1.7158502407638316 4.853155883833259
Ti O
4 8
direct
0.1249830527167153 0.12498305271682558 0.8750169472833296 
0.12501694728328483 0.12501694728317442 0.3749830527166708 
0.6250000000000001 0.625 0.12500000000000003 
0.6250000000000001 0.6250000000000001 0.625 
0.3207566377017648 0.32075663770138224 0.4292855149661175 
0.42928322848661227 0.8207901620469003 0.3749638047330899 
0.32075663770225044 0.320756637701492 0.9292022096305774 
0.8207901620467385 0.42928322848698836 0.3749638047333013 
0.4292098379532606 0.8207167715130117 0.8750361952666987 
0.820716771513388 0.42920983795310014 0.8750361952669101 
0.9292433622977495 0.929243362298508 0.3207977903694226 
0.9292433622982355 0.9292433622986177 0.8207144850338827 
