System
1.0
5.350590345340076 0.002456846926071 1.8932283830311467
0.9792244003257937 5.2602226809850805 1.893228383031147
-0.0042830247385147 -0.0035609551803 7.41014388031937
Ta Ti O
4 2 12
direct
0.3211281250778353 0.32112812507783534 0.1775678025873794 
0.6788718749221648 0.6788718749221648 0.8224321974126207 
-3.7688958727399233e-20 -1.2439439341748222e-19 0.5 
0.0 0.0 0.0 
0.34650687831770066 0.34650687831770066 0.650763871875288 
0.6534931216822994 0.6534931216822997 0.34923612812471244 
0.38346917439712813 0.9600802517642312 0.33019944018366487 
0.6165308256028721 0.0399197482357689 0.6698005598163351 
0.2998136114924161 0.7001863885075842 5.3810310183033996e-17 
0.9600802517642311 0.38346917439712824 0.33019944018366487 
0.094206922836901 0.09420692283690102 0.7027811351542316 
0.9057930771630985 0.9057930771630988 0.2972188648457686 
0.4349017026265044 0.4349017026265046 0.3560206691882358 
0.7001863885075842 0.29981361149241614 -3.1655457180194936e-17 
0.5650982973734959 0.5650982973734959 0.6439793308117642 
0.22999184509549028 0.22999184509549034 0.9693797980328177 
0.7700081549045097 0.7700081549045098 0.03062020196718204 
0.0399197482357689 0.6165308256028722 0.6698005598163351 
