System
1.0
-1.2782360606615144 1.2782360606615144 5.931476601925551
1.2782360606615144 -1.2782360606615144 5.931476601925551
1.2782360606615144 1.2782360606615144 -5.931476601925551
Li Be Re
1 1 1
direct
0.3384048713895981 0.3384048713895982 0.0 
0.0069875918474252 0.0069875918474252 0.0 
0.6546075367629767 0.6546075367629767 0.0 
