System
1.0
5.413551403315214 -0.1515872383632713 -3.0019048495355363
-3.50016087117453 5.104450643074322 -0.1854707968419527
-0.1039446133162155 0.1515872385164358 6.189278496401653
Rb Ag F
2 2 6
direct
2.0551532355318233e-17 0.24999999999999994 0.25 
2.0043251841882717e-16 0.7499999999999999 0.75 
0.5000000000000001 0.49999999999999994 -1.703513295858866e-17 
0.5 -1.9833739525911846e-18 0.5 
0.0009765079945430688 0.25048775399726353 0.7504877539972605 
0.5000000000000033 0.7504877539972735 0.7495122460027188 
0.49999999999999667 0.24951224600272628 0.2504877539972817 
0.9990234920054568 0.7495122460027362 0.24951224600273975 
0.5000000000000001 0.75 0.25000000000000006 
0.5 0.24999999999999994 0.75 
