System
1.0
4.269717383100009 -0.0 0.0
-0.0 4.269717383100009 -0.0
0.0 0.0 6.825733122556711
Ba Sr W
1 1 2
direct
0.5 0.5 0.0 
0.5 0.5 0.5 
0.0 0.0 0.6645006700579611 
0.0 0.0 0.335499329942039 
