System
1.0
4.33727696 0.0 -1.16059899
0.0 7.63680445 0.0
0.01074653 0.0 8.72488296
Yb In Pd
2 8 2
direct
0.87177268 0.25 0.74354536 
0.12822732 0.75 0.25645464 
0.31791364 0.54855438 0.63582728 
0.68208636 0.04855438 0.36417272 
0.9346788 0.75 0.86935759 
0.68208636 0.45144562 0.36417272 
0.31791364 0.95144562 0.63582728 
0.0653212 0.25 0.13064241 
0.5 0.5 0.0 
0.5 0.0 0.0 
0.77254004 0.75 0.54508008 
0.22745996 0.25 0.45491992 
