System
1.0
7.67217378 -0.01865095 0.0
-2.57497521 7.2271783 0.0
-2.54859878 -3.60426367 6.27507243
Ba Ce S
2 4 8
direct
0.625 0.375 0.25 
0.875 0.125 0.75 
0.12704787 0.75 0.87704787 
0.25 0.62704787 0.37704787 
0.37295213 0.25 0.62295213 
0.75 0.87295213 0.12295213 
0.01803435 0.8573065 0.49548131 
0.02255304 0.36182519 0.50451869 
0.1426935 0.13817481 0.16072785 
0.3573065 0.51803435 0.99548131 
0.48196565 0.97744696 0.83927215 
0.63817481 0.6426935 0.66072785 
0.47744696 0.98196565 0.33927215 
0.86182519 0.52255304 0.00451869 
