System
1.0
5.75035292 0.0 0.0
-2.87517646 4.97995171 0.0
0.0 0.0 9.45207373
O Cr Ba
12 4 4
direct
0.62657645 0.81328822 0.75 
0.81328822 0.62657645 0.25 
0.81328822 0.18671178 0.25 
0.18671178 0.81328822 0.75 
0.18671178 0.37342355 0.75 
0.37342355 0.18671178 0.25 
0.5 0.0 0.5 
0.5 0.5 0.0 
0.5 0.0 0.0 
0.5 0.5 0.5 
0.0 0.5 0.5 
0.0 0.5 0.0 
0.33333333 0.66666667 0.88994022 
0.66666667 0.33333333 0.38994022 
0.66666667 0.33333333 0.11005978 
0.33333333 0.66666667 0.61005978 
0.66666667 0.33333333 0.75 
0.33333333 0.66666667 0.25 
0.0 0.0 0.5 
0.0 0.0 0.0 
