System
1.0
6.73897764 0.0 0.0
0.0 7.72392513 0.0
0.0 0.0 14.36753937
O S Nb Sm
16 12 4 12
direct
0.63449406 0.26358436 0.07339657 
0.36550594 0.76358436 0.92660343 
0.86550594 0.76358436 0.57339657 
0.13449406 0.26358436 0.42660343 
0.38167185 0.47890752 0.13870044 
0.61832815 0.97890752 0.86129956 
0.11832815 0.97890752 0.63870044 
0.88167185 0.47890752 0.36129956 
0.3756225 0.02992458 0.1127907 
0.6243775 0.52992458 0.8872093 
0.1243775 0.52992458 0.6127907 
0.8756225 0.02992458 0.3872093 
0.35821232 0.24268879 0.93775886 
0.64178768 0.74268879 0.06224114 
0.14178768 0.74268879 0.43775886 
0.85821232 0.24268879 0.56224114 
0.5020878 0.76064566 0.27263943 
0.4979122 0.26064566 0.72736057 
0.9979122 0.26064566 0.77263943 
0.0020878 0.76064566 0.22736057 
0.54907311 0.23949773 0.29867049 
0.45092689 0.73949773 0.70132951 
0.95092689 0.73949773 0.79867049 
0.04907311 0.23949773 0.20132951 
0.46753946 0.96964884 0.50844212 
0.53246054 0.46964884 0.49155788 
0.03246054 0.46964884 0.00844212 
0.96753946 0.96964884 0.99155788 
0.32120721 0.26470777 0.07347635 
0.67879279 0.76470777 0.92652365 
0.17879279 0.76470777 0.57347635 
0.82120721 0.26470777 0.42652365 
0.72885452 0.49524061 0.16905391 
0.27114548 0.99524061 0.83094609 
0.77114548 0.99524061 0.66905391 
0.22885452 0.49524061 0.33094609 
0.71692515 0.00585682 0.15549759 
0.28307485 0.50585682 0.84450241 
0.78307485 0.50585682 0.65549759 
0.21692515 0.00585682 0.34450241 
0.2780278 0.74949731 0.08234906 
0.7219722 0.24949731 0.91765094 
0.2219722 0.24949731 0.58234906 
0.7780278 0.74949731 0.41765094 
