System
1.0
7.38708393 0.0 -3.50602368
0.0 7.9978561 0.0
-0.18900919 0.0 8.08138149
Cu H C N O
2 16 8 4 12
direct
0.5 0.5 0.5 
0.5 0.0 0.0 
0.84288138 0.54348764 0.364833 
0.24014296 0.12916145 0.36215228 
0.40978754 0.71719784 0.16712318 
0.24014296 0.37083855 0.86215228 
0.40978754 0.78280216 0.66712318 
0.15711862 0.04348764 0.135167 
0.05090503 0.63761186 0.15537162 
0.75985704 0.62916145 0.13784772 
0.59021246 0.28280216 0.83287682 
0.94909497 0.36238814 0.84462838 
0.84288138 0.95651236 0.864833 
0.15711862 0.45651236 0.635167 
0.05090503 0.86238814 0.65537162 
0.75985704 0.87083855 0.63784772 
0.94909497 0.13761186 0.34462838 
0.59021246 0.21719784 0.33287682 
0.50791786 0.70930943 0.78566801 
0.49208214 0.29069057 0.21433199 
0.03764948 0.59402033 0.27891077 
0.96235052 0.09402033 0.22108923 
0.03764948 0.90597967 0.77891077 
0.49208214 0.20930943 0.71433199 
0.50791786 0.79069057 0.28566801 
0.96235052 0.40597967 0.72108923 
0.13372822 0.4152111 0.74354231 
0.13372822 0.0847889 0.24354231 
0.86627178 0.5847889 0.25645769 
0.86627178 0.9152111 0.75645769 
0.82352819 0.44349628 0.5745928 
0.43361566 0.07085205 0.74389132 
0.43361566 0.42914795 0.24389132 
0.56075836 0.76678557 0.94863468 
0.56075836 0.73321443 0.44863468 
0.56638434 0.57085205 0.75610868 
0.17647181 0.94349628 0.9254072 
0.17647181 0.55650372 0.4254072 
0.56638434 0.92914795 0.25610868 
0.43924164 0.23321443 0.05136532 
0.82352819 0.05650372 0.0745928 
0.43924164 0.26678557 0.55136532 
