System
1.0
5.14600471 0.0 0.0
0.0 8.46794588 0.0
0.0 0.0 14.21016835
O Si Eu
28 8 8
direct
0.85572914 0.75086021 0.90210967 
0.14427086 0.25086021 0.09789033 
0.64427086 0.75086021 0.40210967 
0.35572914 0.25086021 0.59789033 
0.28709775 0.91583325 0.9554359 
0.71290225 0.41583325 0.0445641 
0.21290225 0.91583325 0.4554359 
0.78709775 0.41583325 0.5445641 
0.28999013 0.58804345 0.95458337 
0.71000987 0.08804345 0.04541663 
0.21000987 0.58804345 0.45458337 
0.78999013 0.08804345 0.54541663 
0.05309234 0.75058619 0.07949043 
0.94690766 0.25058619 0.92050957 
0.44690766 0.75058619 0.57949043 
0.55309234 0.25058619 0.42050957 
0.47826437 0.08937836 0.27065713 
0.52173563 0.58937836 0.72934287 
0.02173563 0.08937836 0.77065713 
0.97826437 0.58937836 0.22934287 
0.47904918 0.40953853 0.26963006 
0.52095082 0.90953853 0.73036994 
0.02095082 0.40953853 0.76963006 
0.97904918 0.90953853 0.23036994 
0.06567167 0.25051574 0.34513525 
0.93432833 0.75051574 0.65486475 
0.43432833 0.25051574 0.84513525 
0.56567167 0.75051574 0.15486475 
0.12322865 0.7512916 0.96373086 
0.87677135 0.2512916 0.03626914 
0.37677135 0.7512916 0.46373086 
0.62322865 0.2512916 0.53626914 
0.87439632 0.75001183 0.17792798 
0.12560368 0.25001183 0.82207202 
0.62560368 0.75001183 0.67792798 
0.37439632 0.25001183 0.32207202 
0.84161385 0.00590646 0.37464394 
0.15838615 0.50590646 0.62535606 
0.65838615 0.00590646 0.87464394 
0.34161385 0.50590646 0.12535606 
0.84052431 0.4953444 0.37399578 
0.15947569 0.9953444 0.62600422 
0.65947569 0.4953444 0.87399578 
0.34052431 0.9953444 0.12600422 
