System
1.0
3.78432207 0.0 0.0
0.0 3.78432207 0.0
0.0 0.0 3.78432207
Se Pb
1 1
direct
0.5 0.5 0.5 
0.0 0.0 0.0 
