System
1.0
5.4598216 0.0 0.0
0.0 12.32114163 -1.7137404
0.0 0.01937483 16.43064881
Na Y P O
14 4 14 48
direct
0.85366237 0.03762573 0.40584111 
0.85366237 0.46237427 0.59415889 
0.83651071 0.8896802 0.13698239 
0.83651071 0.6103198 0.86301761 
0.29932845 0.48322616 0.93595795 
0.16348929 0.1103198 0.86301761 
0.70067155 0.51677384 0.06404205 
0.29932845 0.01677384 0.06404205 
0.28297535 0.25 0.5 
0.14633763 0.96237427 0.59415889 
0.14633763 0.53762573 0.40584111 
0.16348929 0.3896802 0.13698239 
0.70067155 0.98322616 0.93595795 
0.71702465 0.75 0.5 
0.34864396 0.31286803 0.72526641 
0.65135604 0.68713197 0.27473359 
0.34864396 0.18713197 0.27473359 
0.65135604 0.81286803 0.72526641 
0.8633281 0.34300809 0.8696426 
0.84285509 0.19511198 0.60981503 
0.41671721 0.75 0.0 
0.58328279 0.25 0.0 
0.84285509 0.30488802 0.39018497 
0.1366719 0.65699191 0.1303574 
0.8633281 0.15699191 0.1303574 
0.37240145 0.94584566 0.2785733 
0.15714491 0.80488802 0.39018497 
0.15714491 0.69511198 0.60981503 
0.1366719 0.84300809 0.8696426 
0.62759855 0.44584566 0.2785733 
0.62759855 0.05415434 0.7214267 
0.37240145 0.55415434 0.7214267 
0.05933725 0.62317474 0.53486673 
0.14665844 0.88069901 0.31508418 
0.97753199 0.7107018 0.36242997 
0.44575953 0.14422999 0.98405529 
0.14665844 0.61930099 0.68491582 
0.32203019 0.65287624 0.19899138 
0.87853339 0.05045251 0.07360825 
0.67796981 0.15287624 0.19899138 
0.5776019 0.23480849 0.60644263 
0.45330637 0.46181749 0.65430217 
0.12146661 0.94954749 0.92639175 
0.54669363 0.96181749 0.65430217 
0.94066275 0.37682526 0.46513327 
0.11040221 0.29531074 0.83776624 
0.57834725 0.63459458 0.74801715 
0.22917224 0.74775867 0.92357134 
0.55424047 0.64422999 0.98405529 
0.05933725 0.87682526 0.46513327 
0.42165275 0.36540542 0.25198285 
0.85334156 0.11930099 0.68491582 
0.44575953 0.35577001 0.01594471 
0.74797784 0.00172974 0.79068584 
0.94066275 0.12317474 0.53486673 
0.77082776 0.24775867 0.92357134 
0.45330637 0.03818251 0.34569783 
0.85334156 0.38069901 0.31508418 
0.87853339 0.44954749 0.92639175 
0.54669363 0.53818251 0.34569783 
0.25202216 0.50172974 0.79068584 
0.77082776 0.25224133 0.07642866 
0.97753199 0.7892982 0.63757003 
0.12146661 0.55045251 0.07360825 
0.74797784 0.49827026 0.20931416 
0.22917224 0.75224133 0.07642866 
0.88959779 0.79531074 0.83776624 
0.4223981 0.73480849 0.60644263 
0.32203019 0.84712376 0.80100862 
0.57834725 0.86540542 0.25198285 
0.67796981 0.34712376 0.80100862 
0.55424047 0.85577001 0.01594471 
0.4223981 0.76519151 0.39355737 
0.25202216 0.99827026 0.20931416 
0.88959779 0.70468926 0.16223376 
0.02246801 0.2892982 0.63757003 
0.11040221 0.20468926 0.16223376 
0.42165275 0.13459458 0.74801715 
0.02246801 0.2107018 0.36242997 
0.5776019 0.26519151 0.39355737 
