System
1.0
5.91704265 0.0 0.0
0.0 7.80636446 0.0
0.0 0.0 14.75681763
Na S
8 20
direct
0.1985422 0.94654145 0.75 
0.6985422 0.55345855 0.25 
0.3014578 0.44654145 0.75 
0.8014578 0.05345855 0.25 
0.0 0.0 0.5 
0.5 0.5 0.5 
0.5 0.5 0.0 
0.0 0.0 0.0 
0.10765168 0.45508668 0.13518521 
0.60765168 0.04491332 0.86481479 
0.39234832 0.95508668 0.36481479 
0.89234832 0.54491332 0.63518521 
0.89234832 0.54491332 0.86481479 
0.39234832 0.95508668 0.13518521 
0.60765168 0.04491332 0.63518521 
0.10765168 0.45508668 0.36481479 
0.26625561 0.35678911 0.25 
0.76625561 0.14321089 0.75 
0.23374439 0.85678911 0.25 
0.73374439 0.64321089 0.75 
0.83781665 0.29748329 0.39713783 
0.33781665 0.20251671 0.60286217 
0.66218335 0.79748329 0.10286217 
0.16218335 0.70251671 0.89713783 
0.16218335 0.70251671 0.60286217 
0.66218335 0.79748329 0.39713783 
0.33781665 0.20251671 0.89713783 
0.83781665 0.29748329 0.10286217 
