System
1.0
3.54849396 0.0 -0.97342799
-0.77168755 5.73542556 -2.81307775
-0.00977544 -0.02752602 6.91884527
Cr Se
3 4
direct
0.5 0.5 0.0 
0.23831491 0.21773967 0.47662983 
0.76168509 0.78226033 0.52337017 
0.86574025 0.52273063 0.73148049 
0.13425975 0.47726937 0.26851951 
0.37719688 0.04895421 0.75439375 
0.62280312 0.95104579 0.24560625 
