System
1.0
4.27558146 0.0 0.0
0.0 5.59677167 0.0
0.0 0.0 7.25495688
Cu Yb
4 4
direct
0.25 0.61485951 0.03297234 
0.75 0.38514049 0.96702766 
0.75 0.11485951 0.46702766 
0.25 0.88514049 0.53297234 
0.25 0.13147882 0.18058841 
0.75 0.86852118 0.81941159 
0.75 0.63147882 0.31941159 
0.25 0.36852118 0.68058841 
