System
1.0
6.02120462 0.0 0.0
-3.01060231 5.21451616 0.0
0.0 0.0 11.30414437
S Cr
12 10
direct
0.67375173 0.66220424 0.87815557 
0.33779576 0.01154748 0.87815557 
0.98845252 0.32624827 0.87815557 
0.33779576 0.32624827 0.62184443 
0.98845252 0.66220424 0.62184443 
0.67375173 0.01154748 0.62184443 
0.32624827 0.33779576 0.12184443 
0.66220424 0.98845252 0.12184443 
0.01154748 0.67375173 0.12184443 
0.66220424 0.67375173 0.37815557 
0.32624827 0.98845252 0.37815557 
0.01154748 0.33779576 0.37815557 
0.66666667 0.33333333 0.48955603 
0.66666667 0.33333333 0.01044397 
0.33333333 0.66666667 0.51044397 
0.33333333 0.66666667 0.98955603 
0.0 0.0 0.5 
0.0 0.0 0.0 
0.66666667 0.33333333 0.75 
0.33333333 0.66666667 0.25 
0.0 0.0 0.75 
0.0 0.0 0.25 
