System
1.0
4.19380457 0.0 0.0
0.0 4.19380457 0.0
0.0 0.0 9.65432576
O Zn Sb Nd
2 2 2 2
direct
0.25 0.75 0.0 
0.75 0.25 0.0 
0.75 0.25 0.5 
0.25 0.75 0.5 
0.25 0.25 0.68309597 
0.75 0.75 0.31690403 
0.75 0.75 0.88389349 
0.25 0.25 0.11610651 
