System
1.0
-3.92088389 0.0 0.0
0.0 3.92088389 0.0
1.96044194 -1.96044194 -3.27008129
Eu C
1 2
direct
0.0 0.0 0.0 
0.40246772 0.40246772 0.80493544 
0.59753228 0.59753228 0.19506456 
