System
1.0
9.86791539 0.0 -0.2658152
0.0 12.84463182 0.0
0.00848183 0.0 13.11312167
Ge Ru C Cl O
8 4 16 24 16
direct
0.56281771 0.47384949 0.64292682 
0.99766914 0.18191987 0.64828234 
0.51892136 0.69592854 0.81151307 
0.43718229 0.97384949 0.35707318 
0.99713586 0.01848876 0.87267615 
0.00286414 0.51848876 0.12732385 
0.00233086 0.68191987 0.35171766 
0.48107864 0.19592854 0.18848693 
0.96098778 0.98715441 0.68120067 
0.45173632 0.99878662 0.16395842 
0.54826368 0.49878662 0.83604158 
0.03901222 0.48715441 0.31879933 
0.23080834 0.52244364 0.30011917 
0.25525375 0.02905114 0.16324707 
0.06311469 0.4722624 0.46783242 
0.15948028 0.97052775 0.67763197 
0.74474625 0.52905114 0.83675293 
0.42559006 0.84756871 0.14976191 
0.06419259 0.33901125 0.28821301 
0.35017809 0.48263531 0.81339771 
0.53121243 0.52437658 0.98430107 
0.93580741 0.83901125 0.71178699 
0.46878757 0.02437658 0.01569893 
0.64982191 0.98263531 0.18660229 
0.57440994 0.34756871 0.85023809 
0.84051972 0.47052775 0.32236803 
0.76919166 0.02244364 0.69988083 
0.93688531 0.9722624 0.53216758 
0.04836059 0.87766083 0.95896791 
0.43084019 0.2724911 0.33068515 
0.7931939 0.73175295 0.366259 
0.55266148 0.31151904 0.59585996 
0.59901367 0.04757423 0.44753426 
0.68523769 0.25011728 0.15796978 
0.83922498 0.62712052 0.08977593 
0.16077502 0.12712052 0.91022407 
0.74698731 0.53453877 0.57709063 
0.17114631 0.58332485 0.04406039 
0.31476231 0.75011728 0.84203022 
0.95163941 0.37766083 0.04103209 
0.35583286 0.28605263 0.07863741 
0.56915981 0.7724911 0.66931485 
0.09916713 0.72925373 0.49751045 
0.64416714 0.78605263 0.92136259 
0.08570196 0.79252236 0.24387148 
0.90083287 0.22925373 0.50248955 
0.44733852 0.81151904 0.40414004 
0.40098633 0.54757423 0.55246574 
0.25301269 0.03453877 0.42290937 
0.2068061 0.23175295 0.633741 
0.82885369 0.08332485 0.95593961 
0.91429804 0.29252236 0.75612852 
0.7248962 0.46169905 0.32225377 
0.76429463 0.97410566 0.20174813 
0.07661934 0.46225341 0.55442467 
0.2751038 0.96169905 0.67774623 
0.92309678 0.75184591 0.72828672 
0.65767712 0.04440683 0.71010926 
0.92338066 0.96225341 0.44557533 
0.4799241 0.03735138 0.92962292 
0.14113838 0.04576242 0.16358289 
0.5853816 0.25933258 0.86191987 
0.07690322 0.25184591 0.27171328 
0.85886162 0.54576242 0.83641711 
0.5200759 0.53735138 0.07037708 
0.23570537 0.47410566 0.79825187 
0.4146184 0.75933258 0.13808013 
0.34232288 0.54440683 0.28989074 
