System
1.0
4.0059364 0.0 0.0
0.0 4.04399353 -1.59129812
0.0 -0.03027175 5.85725442
Ge Gd
2 2
direct
0.25 0.58304922 0.16609843 
0.75 0.41695078 0.83390157 
0.25 0.86098748 0.72197496 
0.75 0.13901252 0.27802504 
