System
1.0
3.9762483 0.0 0.0
0.0 8.14979819 0.0
0.0 0.0 13.64741779
Cr Se Ce
4 12 4
direct
0.25 0.83871164 0.44800202 
0.75 0.16128836 0.55199798 
0.25 0.33871164 0.05199798 
0.75 0.66128836 0.94800202 
0.75 0.51440463 0.10932259 
0.25 0.48559537 0.89067741 
0.75 0.01440463 0.39067741 
0.25 0.98559537 0.60932259 
0.75 0.81152255 0.78645106 
0.25 0.18847745 0.21354894 
0.75 0.31152255 0.71354894 
0.25 0.68847745 0.28645106 
0.75 0.65703428 0.50560332 
0.25 0.34296572 0.49439668 
0.75 0.15703428 0.99439668 
0.25 0.84296572 0.00560332 
0.25 0.5943372 0.67195442 
0.75 0.4056628 0.32804558 
0.25 0.0943372 0.82804558 
0.75 0.9056628 0.17195442 
