System
1.0
10.61917963 -1.1e-07 0.0
-5.30958972 9.19647911 0.0
0.0 0.0 6.08214974
Nd Cu Si Se
6 2 2 14
direct
0.77122422 0.12708069 0.24869384 
0.35585647 0.22877578 0.24869384 
0.87291931 0.64414353 0.24869384 
0.12708069 0.35585647 0.74869384 
0.22877578 0.87291931 0.74869384 
0.64414353 0.77122422 0.74869384 
0.0 0.0 0.7204339 
0.0 0.0 0.2204339 
0.666667 0.333333 0.83564832 
0.333333 0.666667 0.33564832 
0.666667 0.333333 0.4622936 
0.83453775 0.09071512 0.73441053 
0.90928488 0.74382263 0.73441053 
0.58413947 0.47874697 0.98290369 
0.47874697 0.8946075 0.48290369 
0.52125303 0.1053925 0.98290369 
0.333333 0.666667 0.9622936 
0.74382263 0.83453775 0.23441053 
0.25617737 0.16546225 0.73441053 
0.1053925 0.58413947 0.48290369 
0.16546225 0.90928488 0.23441053 
0.41586053 0.52125303 0.48290369 
0.8946075 0.41586053 0.98290369 
0.09071512 0.25617737 0.23441053 
