System
1.0
4.72787233 0.0 0.0
0.0 7.46090339 0.0
0.0 0.0 7.99922326
Pd Sn Ce
4 4 4
direct
0.75 0.20676113 0.91733663 
0.25 0.29323887 0.41733663 
0.75 0.70676113 0.58266337 
0.25 0.79323887 0.08266337 
0.25 0.18923135 0.08816651 
0.75 0.31076865 0.58816651 
0.25 0.68923135 0.41183349 
0.75 0.81076865 0.91183349 
0.25 0.51266592 0.79479171 
0.75 0.48733408 0.20520829 
0.25 0.01266592 0.70520829 
0.75 0.98733408 0.29479171 
