System
1.0
5.04254199 -0.01050626 0.07941923
-2.55250067 4.79354968 1.88623976
-0.05459805 0.03933974 5.83320826
Li O Ni W
1 8 1 2
direct
0.966654 0.93264979 0.70943088 
0.95871109 0.22809588 0.92911618 
0.04199171 0.76552734 0.06519101 
0.03603516 0.71407932 0.54669412 
0.50756392 0.75460867 0.81202572 
0.53034889 0.70950684 0.3276264 
0.96151794 0.28488091 0.47181682 
0.51368469 0.25197583 0.19207157 
0.45532096 0.27933826 0.67836861 
0.49956614 0.00056897 0.00864575 
0.26089532 0.52367506 0.669268 
0.74050957 0.4828919 0.33564695 
