System
1.0
3.33601639 0.0 0.0
-1.66800819 2.88903971 0.0
0.0 0.0 8.83652791
Nb In S
1 1 2
direct
0.33332236 0.66664471 0.5 
0.99999931 0.99999861 -0.0 
0.99998917 0.99997834 0.67849702 
0.99998917 0.99997834 0.32150298 
