System
1.0
6.65974093 -0.02258562 -0.75018181
-0.83691669 6.60698288 -0.75018175
-0.01997328 -0.02258565 6.70182883
Fe Sn F O H
1 1 6 6 12
direct
0.5 0.5 0.5 
0.0 0.0 0.0 
0.26529765 0.1367903 0.94015695 
0.94015695 0.26529765 0.1367903 
0.1367903 0.94015695 0.26529765 
0.73470235 0.8632097 0.05984305 
0.05984305 0.73470235 0.8632097 
0.8632097 0.05984305 0.73470235 
0.56618831 0.36302556 0.21483339 
0.21483339 0.56618831 0.36302556 
0.36302556 0.21483339 0.56618831 
0.43381169 0.63697444 0.78516661 
0.78516661 0.43381169 0.63697444 
0.63697444 0.78516661 0.43381169 
0.69928032 0.32414076 0.19099512 
0.19099512 0.69928032 0.32414076 
0.32414076 0.19099512 0.69928032 
0.30071968 0.67585924 0.80900488 
0.80900488 0.30071968 0.67585924 
0.67585924 0.80900488 0.30071968 
0.46308675 0.27941884 0.11392596 
0.11392596 0.46308675 0.27941884 
0.27941884 0.11392596 0.46308675 
0.53691325 0.72058116 0.88607404 
0.88607404 0.53691325 0.72058116 
0.72058116 0.88607404 0.53691325 
