System
1.0
3.22059355 0.0 0.0
-1.61029678 2.78907444 -1.71e-06
0.0 -2.056e-05 36.362684
Mo W Se S
3 1 2 6
direct
0.3333102 0.6666204 0.09391525 
0.66668776 0.33337552 0.28180378 
0.66669027 0.33338054 0.65753745 
0.33330862 0.66661725 0.46966837 
0.33335202 0.66670504 0.32882583 
0.33335256 0.66670611 0.23473898 
0.33335585 0.6667127 0.70034283 
0.66664753 0.33329406 0.05111488 
0.66664622 0.33329144 0.42673716 
0.66664785 0.3332947 0.13670936 
0.66664564 0.33329028 0.51261181 
0.33335548 0.66671195 0.61474231 
