System
1.0
8.49534208 -0.03695645 5.32150614
2.92751276 7.97507827 5.321506
-0.05317977 -0.03695622 10.02429233
Se Rb Mo
14 2 12
direct
0.08021333 0.33121117 0.69754127 
0.30245873 0.91978667 0.66878883 
0.71957213 0.71957213 0.71957213 
0.28042787 0.28042787 0.28042787 
0.48397476 0.12912581 0.74493533 
0.12912581 0.74493533 0.48397476 
0.74493533 0.48397476 0.12912581 
0.51602524 0.87087419 0.25506467 
0.87087419 0.25506467 0.51602524 
0.25506467 0.51602524 0.87087419 
0.91978667 0.66878883 0.30245873 
0.66878883 0.30245873 0.91978667 
0.69754127 0.08021333 0.33121117 
0.33121117 0.69754127 0.08021333 
0.86856436 0.86856436 0.86856436 
0.13143564 0.13143564 0.13143564 
0.56049822 0.37816037 0.69531798 
0.37816037 0.69531798 0.56049822 
0.69531798 0.56049822 0.37816037 
0.43950178 0.62183963 0.30468202 
0.62183963 0.30468202 0.43950178 
0.30468202 0.43950178 0.62183963 
0.49244668 0.61633894 0.80594172 
0.61633894 0.80594172 0.49244668 
0.80594172 0.49244668 0.61633894 
0.50755332 0.38366106 0.19405828 
0.38366106 0.19405828 0.50755332 
0.19405828 0.50755332 0.38366106 
