System
1.0
7.96080482 0.0 0.0
-3.98040241 6.8942594 0.0
0.0 0.0 3.85509276
Sm Tl Pd
3 3 3
direct
1.0 0.59697968 0.5 
0.59697968 0.0 0.5 
0.40302032 0.40302032 0.5 
0.0 0.2656596 0.0 
0.2656596 0.0 0.0 
0.7343404 0.7343404 0.0 
0.0 0.0 0.5 
0.666667 0.333333 0.0 
0.333333 0.666667 0.0 
