System
1.0
11.42293017 -0.00125765 -4.94769831
-7.5345325 8.58569455 -4.9476983
-0.00056966 -0.00125765 12.4484157
C F
72 36
direct
0.11525947 0.77583366 0.92894501 
0.24070406 0.86663786 0.74891055 
0.22202908 0.05196329 0.36445165 
0.32251761 0.32216177 0.10392467 
0.71390843 0.5926265 0.70832856 
0.16213402 0.39017782 0.18825822 
0.47897963 0.68135167 0.91089608 
0.86663786 0.74891055 0.24070406 
0.5926265 0.70832856 0.71390843 
0.81174178 0.83786598 0.60982218 
0.19880359 0.30045951 0.00252325 
0.60982218 0.81174178 0.83786598 
0.63522062 0.62696522 0.7499487 
0.0502708 0.78754822 0.09987545 
0.09987545 0.0502708 0.78754822 
0.4073735 0.29167144 0.28609157 
0.30045951 0.00252325 0.19880359 
0.31864833 0.08910392 0.52102037 
0.32845951 0.04211177 0.11401023 
0.11401023 0.32845951 0.04211177 
0.67783823 0.89607533 0.67748239 
0.28609157 0.4073735 0.29167144 
0.04211177 0.11401023 0.32845951 
0.78754822 0.09987545 0.0502708 
0.88598977 0.67154049 0.95788823 
0.67748239 0.67783823 0.89607533 
0.70832856 0.71390843 0.5926265 
0.82406442 0.17433071 0.91003064 
0.99747675 0.80119641 0.69954049 
0.17433071 0.91003064 0.82406442 
0.37303478 0.2500513 0.36477938 
0.07105499 0.88474053 0.22416634 
0.36445165 0.22202908 0.05196329 
0.80119641 0.69954049 0.99747675 
0.92894501 0.11525947 0.77583366 
0.08910392 0.52102037 0.31864833 
0.7499487 0.63522062 0.62696522 
0.68135167 0.91089608 0.47897963 
0.10392467 0.32251761 0.32216177 
0.89607533 0.67748239 0.67783823 
0.90012455 0.9497292 0.21245178 
0.63554835 0.77797092 0.94803671 
0.22416634 0.07105499 0.88474053 
0.77797092 0.94803671 0.63554835 
0.21245178 0.90012455 0.9497292 
0.77583366 0.92894501 0.11525947 
0.52102037 0.31864833 0.08910392 
0.08996936 0.17593558 0.82566929 
0.62696522 0.7499487 0.63522062 
0.9497292 0.21245178 0.90012455 
0.74891055 0.24070406 0.86663786 
0.95788823 0.88598977 0.67154049 
0.18825822 0.16213402 0.39017782 
0.25108945 0.75929594 0.13336214 
0.82566929 0.08996936 0.17593558 
0.91089608 0.47897963 0.68135167 
0.67154049 0.95788823 0.88598977 
0.32216177 0.10392467 0.32251761 
0.69954049 0.99747675 0.80119641 
0.2500513 0.36477938 0.37303478 
0.00252325 0.19880359 0.30045951 
0.05196329 0.36445165 0.22202908 
0.94803671 0.63554835 0.77797092 
0.36477938 0.37303478 0.2500513 
0.88474053 0.22416634 0.07105499 
0.91003064 0.82406442 0.17433071 
0.17593558 0.82566929 0.08996936 
0.39017782 0.18825822 0.16213402 
0.75929594 0.13336214 0.25108945 
0.29167144 0.28609157 0.4073735 
0.83786598 0.60982218 0.81174178 
0.13336214 0.25108945 0.75929594 
0.50364334 0.33439085 0.98357825 
0.60229678 0.04015305 0.14433811 
0.71793183 0.67916755 0.17885573 
0.79405671 0.12060142 0.36108765 
0.01642175 0.49635666 0.66560915 
0.23246147 0.62631953 0.46432678 
0.49635666 0.66560915 0.01642175 
0.46432678 0.23246147 0.62631953 
0.41456769 0.74688584 0.9054302 
0.67916755 0.17885573 0.71793183 
0.76753853 0.37368047 0.53567322 
0.14433811 0.60229678 0.04015305 
0.33439085 0.98357825 0.50364334 
0.9054302 0.41456769 0.74688584 
0.04015305 0.14433811 0.60229678 
0.12060142 0.36108765 0.79405671 
0.87939858 0.63891235 0.20594329 
0.25311416 0.0945698 0.58543231 
0.95984695 0.85566189 0.39770322 
0.37368047 0.53567322 0.76753853 
0.74688584 0.9054302 0.41456769 
0.39770322 0.95984695 0.85566189 
0.63891235 0.20594329 0.87939858 
0.85566189 0.39770322 0.95984695 
0.82114427 0.28206817 0.32083245 
0.53567322 0.76753853 0.37368047 
0.36108765 0.79405671 0.12060142 
0.58543231 0.25311416 0.0945698 
0.20594329 0.87939858 0.63891235 
0.98357825 0.50364334 0.33439085 
0.17885573 0.71793183 0.67916755 
0.32083245 0.82114427 0.28206817 
0.66560915 0.01642175 0.49635666 
0.62631953 0.46432678 0.23246147 
0.28206817 0.32083245 0.82114427 
0.0945698 0.58543231 0.25311416 
