System
1.0
7.8512821 2.261e-05 -3.40170992
-2.01555765 8.58241167 -4.65191289
-0.02091543 0.01315345 10.71286246
Na Sr Al Si O
4 2 8 8 32
direct
0.3627718 0.08043377 0.80937102 
0.862771 0.22893653 0.80937013 
0.94664156 0.58041722 0.80937412 
0.44664267 0.72895723 0.80937557 
0.65403136 0.15405892 0.30811547 
0.15403098 0.65405659 0.30811542 
0.99409008 0.87242958 0.12684229 
0.088041 0.26048739 0.62131313 
0.49409004 0.75441274 0.12684229 
0.58804096 0.86082575 0.62131319 
0.0332357 0.76050646 0.6213356 
0.53323574 0.36082932 0.62133568 
0.13280589 0.25443316 0.12689654 
0.63280586 0.37246341 0.12689656 
0.76185448 0.05308467 0.99660181 
0.73476815 0.55307568 0.99658788 
0.26185453 0.44351715 0.99660177 
0.23476817 0.9435122 0.99658783 
0.82156193 0.94466417 0.49155513 
0.66998651 0.54689589 0.49158906 
0.32156188 0.04689094 0.4915552 
0.1699865 0.44469322 0.491589 
0.39347903 0.91861618 0.54389513 
0.15039576 0.62529827 0.54393002 
0.62346707 0.91695603 0.8157064 
0.97216247 0.84218461 0.49773073 
0.89347904 0.12527891 0.54389527 
0.02554927 0.34219726 0.497741 
0.75793286 0.95832478 0.62153354 
0.65555609 0.44087045 0.31615275 
0.1555561 0.37528238 0.31615268 
0.6605616 0.87525073 0.31611821 
0.86358583 0.66321399 0.62156175 
0.41669884 0.88904632 0.06526534 
0.12346704 0.39875049 0.81570647 
0.0742674 0.85197433 0.99270718 
0.28276599 0.13303497 0.11408637 
0.14862427 0.38905187 0.06529929 
0.47216256 0.15554628 0.49773088 
0.64862413 0.17624737 0.06529943 
0.78276594 0.48105146 0.11408636 
0.25793271 0.1632088 0.62153335 
0.3635858 0.45834768 0.62156161 
0.41850216 0.35200429 0.99272661 
0.57426729 0.64073268 0.9927071 
0.65039594 0.41863203 0.54393027 
0.16056171 0.94086755 0.31611827 
0.52554927 0.65554361 0.49774078 
0.91669911 0.67621906 0.06526545 
0.69223758 0.4169297 0.81569603 
0.19223738 0.8987664 0.81569608 
0.9185021 0.1407223 0.99272668 
0.33132544 0.63304144 0.11406721 
0.8313254 0.98102578 0.11406712 
