System
1.0
5.54664963 0.0 0.0
0.0 8.22281023 0.0
0.0 0.0 18.57989867
In Te O
8 12 36
direct
0.70716578 0.68547405 0.06339138 
0.79283422 0.18547405 0.43660862 
0.20716578 0.81452595 0.93660862 
0.29283422 0.31452595 0.93660862 
0.70716578 0.68547405 0.43660862 
0.29283422 0.31452595 0.56339138 
0.20716578 0.81452595 0.56339138 
0.79283422 0.18547405 0.06339138 
0.73055569 0.15761439 0.25 
0.81374097 0.13796429 0.86920919 
0.18625903 0.86203571 0.13079081 
0.23055569 0.34238561 0.75 
0.68625903 0.63796429 0.86920919 
0.68625903 0.63796429 0.63079081 
0.31374097 0.36203571 0.36920919 
0.18625903 0.86203571 0.36920919 
0.31374097 0.36203571 0.13079081 
0.81374097 0.13796429 0.63079081 
0.26944431 0.84238561 0.75 
0.76944431 0.65761439 0.25 
0.45983224 0.1495906 0.1261432 
0.37472507 0.82020003 0.04151257 
0.04016776 0.6495906 0.3738568 
0.04016776 0.6495906 0.1261432 
0.37472507 0.82020003 0.45848743 
0.04793908 0.78709797 0.67324322 
0.94751501 0.85958681 0.25 
0.45983224 0.1495906 0.3738568 
0.54016776 0.8504094 0.6261432 
0.95983224 0.3504094 0.6261432 
0.59092453 0.43273558 0.42754554 
0.40907547 0.56726442 0.57245446 
0.45206092 0.28709797 0.67324322 
0.59092453 0.43273558 0.07245446 
0.05248499 0.14041319 0.75 
0.54016776 0.8504094 0.8738568 
0.09092453 0.06726442 0.57245446 
0.62527493 0.17979997 0.95848743 
0.44751501 0.64041319 0.75 
0.62527493 0.17979997 0.54151257 
0.12527493 0.32020003 0.04151257 
0.09092453 0.06726442 0.92754554 
0.87472507 0.67979997 0.95848743 
0.45206092 0.28709797 0.82675678 
0.40907547 0.56726442 0.92754554 
0.54793908 0.71290203 0.32675678 
0.95983224 0.3504094 0.8738568 
0.04793908 0.78709797 0.82675678 
0.95206092 0.21290203 0.32675678 
0.55248499 0.35958681 0.25 
0.12527493 0.32020003 0.45848743 
0.95206092 0.21290203 0.17324322 
0.90907547 0.93273558 0.07245446 
0.87472507 0.67979997 0.54151257 
0.90907547 0.93273558 0.42754554 
0.54793908 0.71290203 0.17324322 
