System
1.0
4.8468954 0.0 2.79835623
1.6156318 4.56969661 2.79835623
-1e-08 -1e-08 5.59671349
Ti B Rh
2 1 6
direct
0.25 0.25 0.25 
0.75 0.75 0.75 
0.5 0.5 0.5 
0.24188118 0.75811882 0.75811882 
0.24188118 0.24188118 0.75811882 
0.75811882 0.24188118 0.75811882 
0.75811882 0.24188118 0.24188118 
0.24188118 0.75811882 0.24188118 
0.75811882 0.75811882 0.24188118 
