System
1.0
5.75324189 -0.01746537 0.0
-0.13307171 5.75172924 0.0
0.0 0.0 22.55508126
Ge Pd Yb
24 4 8
direct
0.5962992 0.5962992 0.8054757 
0.9037008 0.9037008 0.3054757 
0.0962992 0.0962992 0.6945243 
0.4037008 0.4037008 0.1945243 
0.65214249 0.65214249 0.69426468 
0.84785751 0.84785751 0.19426468 
0.15214249 0.15214249 0.80573532 
0.34785751 0.34785751 0.30573532 
0.87066619 0.87066619 0.96974886 
0.62933381 0.62933381 0.46974886 
0.37066619 0.37066619 0.53025114 
0.12933381 0.12933381 0.03025114 
0.39968916 0.85156642 0.19492784 
0.10031084 0.64843358 0.69492784 
0.35156642 0.89968916 0.30507216 
0.14843358 0.60031084 0.80507216 
0.60031084 0.14843358 0.80507216 
0.89968916 0.35156642 0.30507216 
0.64843358 0.10031084 0.69492784 
0.85156642 0.39968916 0.19492784 
0.12170666 0.12170666 0.46431236 
0.37829334 0.37829334 0.96431236 
0.62170666 0.62170666 0.03568764 
0.87829334 0.87829334 0.53568764 
0.87427282 0.87427282 0.85944831 
0.62572718 0.62572718 0.35944831 
0.37427282 0.37427282 0.64055169 
0.12572718 0.12572718 0.14055169 
0.12597507 0.62503091 0.08493196 
0.37402493 0.87496909 0.58493196 
0.12503091 0.62597507 0.41506804 
0.37496909 0.87402493 0.91506804 
0.87402493 0.37496909 0.91506804 
0.62597507 0.12503091 0.41506804 
0.87496909 0.37402493 0.58493196 
0.62503091 0.12597507 0.08493196 
