System
1.0
0.0 3.35106251 0.0
-0.01353968 0.0 5.73305075
5.44306938 -1.67553126 -2.23488124
Dy Mo C
2 2 3
direct
0.38970853 0.1749495 0.77941706 
0.61029147 0.8250505 0.22058294 
0.15702141 0.32653198 0.31404281 
0.84297859 0.67346802 0.68595719 
0.24903947 0.73356254 0.49807894 
0.75096053 0.26643746 0.50192106 
0.0 0.0 0.0 
