System
1.0
7.70490423 3.96e-06 7.70490423
3.85245131 3.1455164 3.85245131
-2.0556627 1.32e-06 7.19226552
Zr Cl
2 6
direct
0.33363602 0.0 -0.00090907 
0.66636398 0.0 0.00090907 
0.07731954 0.3399089 0.76883854 
0.26338753 0.65929293 0.23116146 
0.41722944 0.31938303 0.76883854 
0.58277056 0.68061697 0.23116146 
0.73661247 0.34070707 0.76883854 
0.92268046 0.6600911 0.23116146 
