System
1.0
4.59487458 -0.00198708 2.33356264
1.43127564 4.36627145 2.33356264
-0.00274373 -0.00198708 5.15348227
B O
12 2
direct
0.79882904 0.32372064 0.79882904 
0.79882904 0.79882904 0.32372064 
0.32372064 0.79882904 0.79882904 
0.67627936 0.20117096 0.20117096 
0.20117096 0.67627936 0.20117096 
0.20117096 0.20117096 0.67627936 
0.99769722 0.6668369 0.99769722 
0.99769722 0.99769722 0.6668369 
0.6668369 0.99769722 0.99769722 
0.3331631 0.00230278 0.00230278 
0.00230278 0.3331631 0.00230278 
0.00230278 0.00230278 0.3331631 
0.37773334 0.37773334 0.37773334 
0.62226666 0.62226666 0.62226666 
