System
1.0
4.97209805 0.0 0.0
0.0 8.67487139 0.0
0.0 0.0 8.67487139
B
48
direct
0.90643119 0.41603663 0.82924168 
0.41136793 0.72721021 0.58300421 
0.58863207 0.27278979 0.58300421 
0.61721461 0.87494322 0.12505678 
0.88278539 0.62505678 0.37494322 
0.90643119 0.17075832 0.58396337 
0.58863207 0.72721021 0.41699579 
0.41136793 0.41699579 0.27278979 
0.09356881 0.17075832 0.41603663 
0.41136793 0.27278979 0.41699579 
0.57673529 0.75584585 0.75584585 
0.92326471 0.25584585 0.25584585 
0.40643119 0.08396337 0.32924168 
0.90643119 0.58396337 0.17075832 
0.42326471 0.75584585 0.24415415 
0.90643119 0.82924168 0.41603663 
0.08863207 0.91699579 0.77278979 
0.07673529 0.74415415 0.25584585 
0.91136793 0.77278979 0.08300421 
0.59356881 0.08396337 0.67075832 
0.08863207 0.08300421 0.22721021 
0.41136793 0.58300421 0.72721021 
0.40643119 0.67075832 0.91603663 
0.57673529 0.24415415 0.24415415 
0.91136793 0.22721021 0.91699579 
0.09356881 0.58396337 0.82924168 
0.59356881 0.67075832 0.08396337 
0.88278539 0.37494322 0.62505678 
0.59356881 0.32924168 0.91603663 
0.07673529 0.25584585 0.74415415 
0.38278539 0.12505678 0.12505678 
0.92326471 0.74415415 0.74415415 
0.91136793 0.91699579 0.22721021 
0.91136793 0.08300421 0.77278979 
0.58863207 0.58300421 0.27278979 
0.08863207 0.77278979 0.91699579 
0.08863207 0.22721021 0.08300421 
0.58863207 0.41699579 0.72721021 
0.40643119 0.91603663 0.67075832 
0.09356881 0.82924168 0.58396337 
0.11721461 0.62505678 0.62505678 
0.09356881 0.41603663 0.17075832 
0.42326471 0.24415415 0.75584585 
0.61721461 0.12505678 0.87494322 
0.40643119 0.32924168 0.08396337 
0.11721461 0.37494322 0.37494322 
0.38278539 0.87494322 0.87494322 
0.59356881 0.91603663 0.32924168 
