System
1.0
6.3269829 0.0 -1.04882286
0.0 11.44464359 0.0
0.03995186 0.0 14.66595079
H C N P Br
36 12 4 4 12
direct
0.43405289 0.08233444 0.8280927 
0.06594711 0.58233444 0.6719073 
0.56594711 0.91766556 0.1719073 
0.93405289 0.41766556 0.3280927 
0.35763886 0.05369236 0.93836253 
0.14236114 0.55369236 0.56163747 
0.64236114 0.94630764 0.06163747 
0.85763886 0.44630764 0.43836253 
0.57914884 0.14579396 0.93067007 
0.92085116 0.64579396 0.56932993 
0.42085116 0.85420604 0.06932993 
0.07914884 0.35420604 0.43067007 
0.36059734 0.27935238 0.75783406 
0.49557162 0.62563071 0.6068629 
0.99557162 0.87436929 0.1068629 
0.50442838 0.37436929 0.3931371 
0.05260574 0.15262121 0.77812299 
0.00442838 0.12563071 0.8931371 
0.94739426 0.84737879 0.22187701 
0.55260574 0.34737879 0.27812299 
0.96195937 0.26836053 0.84349219 
0.53804063 0.76836053 0.65650781 
0.03804063 0.73163947 0.15650781 
0.46195937 0.23163947 0.34349219 
0.7567796 0.11011243 0.32467653 
0.7432204 0.61011243 0.17532347 
0.2432204 0.88988757 0.67532347 
0.2567796 0.38988757 0.82467653 
0.02087281 0.16137266 0.35849282 
0.47912719 0.66137266 0.14150718 
0.97912719 0.83862734 0.64150718 
0.52087281 0.33862734 0.85849282 
0.86059734 0.22064762 0.25783406 
0.63940266 0.72064762 0.24216594 
0.13940266 0.77935238 0.74216594 
0.44739426 0.65262121 0.72187701 
0.56266621 0.30984628 0.3479423 
0.93733379 0.80984628 0.1520577 
0.43733379 0.69015372 0.6520577 
0.06266621 0.19015372 0.8479423 
0.35979856 0.31273354 0.82836014 
0.14020144 0.81273354 0.67163986 
0.64020144 0.68726646 0.17163986 
0.85979856 0.18726646 0.32836014 
0.42100523 0.11999876 0.89628923 
0.07899477 0.61999876 0.60371077 
0.57899477 0.88000124 0.10371077 
0.92100523 0.38000124 0.39628923 
0.28153359 0.22263458 0.8862337 
0.21846641 0.72263458 0.6137663 
0.71846641 0.77736542 0.1137663 
0.78153359 0.27736542 0.3862337 
0.73641689 0.1728506 0.52366784 
0.76358311 0.6728506 0.97633216 
0.26358311 0.8271494 0.47633216 
0.23641689 0.3271494 0.02366784 
0.85214504 0.54731936 0.85119658 
0.35214504 0.95268064 0.35119658 
0.14785496 0.45268064 0.14880342 
0.64785496 0.04731936 0.64880342 
0.17647336 0.15632813 0.09452449 
0.32352664 0.65632813 0.40547551 
0.82352664 0.84367187 0.90547551 
0.67647336 0.34367187 0.59452449 
0.5905301 0.34450214 0.06370057 
0.9094699 0.84450214 0.43629943 
0.4094699 0.65549786 0.93629943 
0.0905301 0.15549786 0.56370057 
