System
1.0
8.08133282 0.0 -0.43137752
0.0 8.94998516 0.0
0.02487261 0.0 15.43175353
Ni As S O F
2 4 12 24 24
direct
0.0 0.0 0.0 
0.0 0.5 0.5 
0.7414393 0.00378571 0.35769531 
0.2585607 0.99621429 0.64230469 
0.7414393 0.49621429 0.85769531 
0.2585607 0.50378571 0.14230469 
0.24093784 0.24427456 0.40498886 
0.75906216 0.74427456 0.09501114 
0.22386884 0.75771798 0.88413898 
0.77613116 0.24228202 0.11586102 
0.70264907 0.49446556 0.34189015 
0.77613116 0.25771798 0.61586102 
0.75906216 0.75572544 0.59501114 
0.24093784 0.25572544 0.90498886 
0.29735093 0.50553444 0.65810985 
0.22386884 0.74228202 0.38413898 
0.70264907 0.00553444 0.84189015 
0.29735093 0.99446556 0.15810985 
0.61893052 0.1683579 0.10402944 
0.90816803 0.67387448 0.57203305 
0.60232403 0.68377759 0.57702032 
0.90816803 0.82612552 0.07203305 
0.07955961 0.66573994 0.41739734 
0.18670151 0.46431775 0.72418115 
0.38106948 0.8316421 0.89597056 
0.07955961 0.83426006 0.91739734 
0.22445282 0.98127769 0.06924242 
0.39767597 0.18377759 0.92297968 
0.09183197 0.32612552 0.42796695 
0.77554718 0.01872231 0.93075758 
0.09183197 0.17387448 0.92796695 
0.22445282 0.51872231 0.56924242 
0.38106948 0.6683579 0.39597056 
0.77554718 0.48127769 0.43075758 
0.60232403 0.81622241 0.07702032 
0.81329849 0.53568225 0.27581885 
0.81329849 0.96431775 0.77581885 
0.18670151 0.03568225 0.22418115 
0.92044039 0.33426006 0.58260266 
0.92044039 0.16573994 0.08260266 
0.39767597 0.31622241 0.42297968 
0.61893052 0.3316421 0.60402944 
0.72556632 0.82386556 0.40555767 
0.47500631 0.50556442 0.16667591 
0.2279279 0.42041748 0.24481671 
0.04253616 0.99690379 0.61858104 
0.52499369 0.49443558 0.83332409 
0.7720721 0.57958252 0.75518329 
0.27443368 0.32386556 0.09444233 
0.2279279 0.07958252 0.74481671 
0.75718907 0.18490122 0.30890708 
0.24281093 0.68490122 0.19109292 
0.7720721 0.92041748 0.25518329 
0.24281093 0.81509878 0.69109292 
0.71071721 0.41198795 0.95991529 
0.28928279 0.91198795 0.54008471 
0.75718907 0.31509878 0.80890708 
0.28928279 0.58801205 0.04008471 
0.95746384 0.00309621 0.38141896 
0.52499369 0.00556442 0.33332409 
0.71071721 0.08801205 0.45991529 
0.95746384 0.49690379 0.88141896 
0.04253616 0.50309621 0.11858104 
0.72556632 0.67613444 0.90555767 
0.27443368 0.17613444 0.59444233 
0.47500631 0.99443558 0.66667591 
