System
1.0
4.80463557 0.09011596 0.0
0.00663448 7.76793963 0.0
0.0 0.0 12.19356991
O Si P
28 4 8
direct
0.51782782 0.15937939 0.26486429 
0.98217218 0.34062061 0.76486429 
0.48217218 0.84062061 0.73513571 
0.01782782 0.65937939 0.23513571 
0.02487576 0.07213972 0.24032535 
0.47512424 0.42786028 0.74032535 
0.97512424 0.92786028 0.75967465 
0.52487576 0.57213972 0.25967465 
0.63696411 0.8671006 0.1879539 
0.86303589 0.6328994 0.6879539 
0.36303589 0.1328994 0.8120461 
0.13696411 0.3671006 0.3120461 
0.21461219 0.625916 0.4238789 
0.28538781 0.874084 0.9238789 
0.78538781 0.374084 0.5761211 
0.71461219 0.125916 0.0761211 
0.57308648 0.76286486 0.53647776 
0.92691352 0.73713514 0.03647776 
0.42691352 0.23713514 0.46352224 
0.07308648 0.26286486 0.96352224 
0.06735063 0.85017857 0.56196046 
0.43264937 0.64982143 0.06196046 
0.93264937 0.14982143 0.43803954 
0.56735063 0.35017857 0.93803954 
0.31997677 0.93789195 0.39057251 
0.18002323 0.56210805 0.89057251 
0.68002323 0.06210805 0.60942749 
0.81997677 0.43789195 0.10942749 
0.22637139 0.15409053 0.35202743 
0.27362861 0.34590947 0.85202743 
0.77362861 0.84590947 0.64797257 
0.72637139 0.65409053 0.14797257 
0.72744486 0.05215518 0.19939579 
0.77255514 0.44784482 0.69939579 
0.27255514 0.94784482 0.80060421 
0.22744486 0.55215518 0.30060421 
0.79422849 0.30329955 0.01898679 
0.70577151 0.19670045 0.51898679 
0.20577151 0.69670045 0.98101321 
0.29422849 0.80329955 0.48101321 
