System
1.0
7.42281469 0.00516964 0.0
-2.46939791 7.00002008 0.0
-2.47670889 -3.50259486 6.05771888
Ce Nd S
2 4 8
direct
0.625 0.375 0.25 
0.875 0.125 0.75 
0.12947725 0.75 0.87947725 
0.25 0.62947725 0.37947725 
0.37052275 0.25 0.62052275 
0.75 0.87052275 0.12052275 
0.00028977 0.85064699 0.50105997 
0.9992298 0.34958702 0.49894003 
0.14935301 0.15041298 0.14964278 
0.35064699 0.50028977 0.00105997 
0.65041298 0.64935301 0.64964278 
0.49971023 0.0007702 0.85035722 
0.5007702 0.99971023 0.35035722 
0.84958702 0.4992298 0.99894003 
