System
1.0
7.52361341 0.0 0.0
0.0 10.69220441 0.0
0.0 0.0 18.68288893
Sr Re Cl O
20 12 4 60
direct
0.27827488 0.48958494 0.25 
0.26036851 0.3860108 0.88985332 
0.4996624 0.75349646 0.58514683 
0.0003376 0.25349646 0.41485317 
0.5003376 0.24650354 0.41485317 
0.73963149 0.6139892 0.11014668 
0.5003376 0.24650354 0.08514683 
0.23963149 0.8860108 0.38985332 
0.73963149 0.6139892 0.38985332 
0.4996624 0.75349646 0.91485317 
0.26036851 0.3860108 0.61014668 
0.9996624 0.74650354 0.91485317 
0.22172512 0.98958494 0.75 
0.72172512 0.51041506 0.75 
0.77827488 0.01041506 0.25 
0.76036851 0.1139892 0.88985332 
0.0003376 0.25349646 0.08514683 
0.76036851 0.1139892 0.61014668 
0.23963149 0.8860108 0.11014668 
0.9996624 0.74650354 0.58514683 
0.79229214 0.44089441 0.94269847 
0.22060599 0.14639291 0.25 
0.29229214 0.05910559 0.55730153 
0.29229214 0.05910559 0.94269847 
0.70770786 0.94089441 0.44269847 
0.79229214 0.44089441 0.55730153 
0.77939401 0.85360709 0.75 
0.27939401 0.64639291 0.75 
0.20770786 0.55910559 0.44269847 
0.70770786 0.94089441 0.05730153 
0.20770786 0.55910559 0.05730153 
0.72060599 0.35360709 0.25 
0.87721418 0.24350243 0.75 
0.62278582 0.74350243 0.25 
0.37721418 0.25649757 0.75 
0.12278582 0.75649757 0.25 
0.92287381 0.92925952 0.81790723 
0.73576747 0.60415378 0.96885246 
0.08175962 0.56014306 0.75 
0.74936725 0.72611828 0.81744048 
0.42287381 0.57074048 0.68209277 
0.445917 0.19436882 0.94848262 
0.03852551 0.48879918 0.11630391 
0.22573919 0.09980922 0.46429817 
0.77426081 0.90019078 0.96429817 
0.91824038 0.43985694 0.25 
0.27426081 0.59980922 0.96429817 
0.03852551 0.48879918 0.38369609 
0.23576747 0.89584622 0.96885246 
0.96147449 0.51120082 0.61630391 
0.72573919 0.40019078 0.46429817 
0.72573919 0.40019078 0.03570183 
0.554083 0.80563118 0.05151738 
0.62534757 0.38906595 0.616763 
0.12534757 0.11093405 0.883237 
0.12534757 0.11093405 0.616763 
0.87465243 0.88906595 0.383237 
0.054083 0.69436882 0.44848262 
0.26423253 0.39584622 0.46885246 
0.53852551 0.01120082 0.11630391 
0.96147449 0.51120082 0.88369609 
0.57712619 0.42925952 0.18209277 
0.27426081 0.59980922 0.53570183 
0.37465243 0.61093405 0.116763 
0.25063275 0.27388172 0.31744048 
0.77426081 0.90019078 0.53570183 
0.445917 0.19436882 0.55151738 
0.26423253 0.39584622 0.03114754 
0.42287381 0.57074048 0.81790723 
0.74936725 0.72611828 0.68255952 
0.53852551 0.01120082 0.38369609 
0.73576747 0.60415378 0.53114754 
0.92287381 0.92925952 0.68209277 
0.87465243 0.88906595 0.116763 
0.22573919 0.09980922 0.03570183 
0.25063275 0.27388172 0.18255952 
0.46147449 0.98879918 0.88369609 
0.945917 0.30563118 0.94848262 
0.62534757 0.38906595 0.883237 
0.554083 0.80563118 0.44848262 
0.58175962 0.93985694 0.75 
0.75063275 0.22611828 0.31744048 
0.07712619 0.07074048 0.18209277 
0.41824038 0.06014306 0.25 
0.57712619 0.42925952 0.31790723 
0.24936725 0.77388172 0.81744048 
0.76423253 0.10415378 0.03114754 
0.24936725 0.77388172 0.68255952 
0.23576747 0.89584622 0.53114754 
0.75063275 0.22611828 0.18255952 
0.054083 0.69436882 0.05151738 
0.37465243 0.61093405 0.383237 
0.76423253 0.10415378 0.46885246 
0.945917 0.30563118 0.55151738 
0.46147449 0.98879918 0.61630391 
0.07712619 0.07074048 0.31790723 
