System
1.0
3.63582351 0.0 0.0
0.0 3.63582351 0.0
0.0 0.0 3.63582351
Al Gd
1 1
direct
0.5 0.5 0.5 
0.0 0.0 0.0 
