System
1.0
6.31489239 0.0 0.0
-3.1574462 5.46885672 0.0
0.0 0.0 25.59410873
Cs Ca Ni F
10 2 8 30
direct
0.666667 0.333333 0.94195585 
0.0 0.0 0.84502978 
0.0 0.0 0.15497022 
0.333333 0.666667 0.05804415 
0.333333 0.666667 0.44195585 
0.0 0.0 0.65497022 
0.666667 0.333333 0.75 
0.666667 0.333333 0.55804415 
0.333333 0.666667 0.25 
0.0 0.0 0.34502978 
0.0 0.0 0.0 
0.0 0.0 0.5 
0.666667 0.333333 0.09069654 
0.333333 0.666667 0.69723938 
0.333333 0.666667 0.90930346 
0.666667 0.333333 0.40930346 
0.666667 0.333333 0.30276062 
0.333333 0.666667 0.59069654 
0.666667 0.333333 0.19723938 
0.333333 0.666667 0.80276062 
0.52578976 0.47421024 0.35392682 
0.47421024 0.94842047 0.64607318 
0.82493893 0.64987785 0.45065609 
0.94842047 0.47421024 0.35392682 
0.47421024 0.52578976 0.64607318 
0.47421024 0.94842047 0.85392682 
0.17506107 0.35012215 0.54934391 
0.94842047 0.47421024 0.14607318 
0.64987785 0.82493893 0.54934391 
0.80791317 0.61582634 0.25 
0.38417366 0.19208683 0.25 
0.17506107 0.82493893 0.54934391 
0.82493893 0.17506107 0.45065609 
0.82493893 0.64987785 0.04934391 
0.05157953 0.52578976 0.64607318 
0.64987785 0.82493893 0.95065609 
0.61582634 0.80791317 0.75 
0.05157953 0.52578976 0.85392682 
0.17506107 0.82493893 0.95065609 
0.80791317 0.19208683 0.25 
0.52578976 0.05157953 0.35392682 
0.52578976 0.47421024 0.14607318 
0.35012215 0.17506107 0.04934391 
0.17506107 0.35012215 0.95065609 
0.35012215 0.17506107 0.45065609 
0.19208683 0.80791317 0.75 
0.52578976 0.05157953 0.14607318 
0.19208683 0.38417366 0.75 
0.47421024 0.52578976 0.85392682 
0.82493893 0.17506107 0.04934391 
