System
1.0
4.31683975 0.0 0.0
0.0 4.31683975 0.0
0.0 0.0 6.90099207
Ge Ru Nd
2 2 2
direct
0.75 0.75 0.80773993 
0.25 0.25 0.19226007 
0.75 0.25 0.0 
0.25 0.75 0.0 
0.75 0.75 0.3137937 
0.25 0.25 0.6862063 
