System
1.0
5.36933398 0.0 0.0
0.0 5.70874955 0.0
0.0 0.0 14.52898866
Ag Te N O
4 4 4 20
direct
0.25 0.5 0.61401841 
0.75 0.5 0.38598159 
0.25 0.0 0.11401841 
0.75 0.0 0.88598159 
0.75 0.0 0.56084142 
0.25 0.0 0.43915858 
0.25 0.5 0.93915858 
0.75 0.5 0.06084142 
0.75 0.5 0.74313401 
0.75 0.0 0.24313401 
0.25 0.0 0.75686599 
0.25 0.5 0.25686599 
0.93534439 0.29688511 0.97650464 
0.10170441 0.13355215 0.71449103 
0.89829559 0.86644785 0.28550897 
0.39829559 0.63355215 0.21449103 
0.56465561 0.70311489 0.97650464 
0.10170441 0.36644785 0.21449103 
0.39829559 0.86644785 0.71449103 
0.60170441 0.13355215 0.28550897 
0.75 0.5 0.65462634 
0.25 0.5 0.34537366 
0.60170441 0.36644785 0.78550897 
0.06465561 0.70311489 0.02349536 
0.75 0.0 0.15462634 
0.89829559 0.63355215 0.78550897 
0.25 0.0 0.84537366 
0.06465561 0.79688511 0.52349536 
0.43534439 0.29688511 0.02349536 
0.43534439 0.20311489 0.52349536 
0.56465561 0.79688511 0.47650464 
0.93534439 0.20311489 0.47650464 
