System
1.0
7.85722232 0.0 0.0
0.0 10.17547045 -3.51309028
0.0 0.00436285 12.08625744
K Cu P Se
4 4 8 20
direct
0.37358604 0.60103344 0.22142008 
0.62641396 0.39896656 0.77857992 
0.12641396 0.10103344 0.72142008 
0.87358604 0.89896656 0.27857992 
0.66333428 0.81689092 0.66948843 
0.16333428 0.68310908 0.83051157 
0.83666572 0.31689092 0.16948843 
0.33666572 0.18310908 0.33051157 
0.34803457 0.88338564 0.07846018 
0.06551552 0.71427426 0.54284539 
0.93448448 0.28572574 0.45715461 
0.15196543 0.38338564 0.57846018 
0.65196543 0.11661436 0.92153982 
0.84803457 0.61661436 0.42153982 
0.43448448 0.21427426 0.04284539 
0.56551552 0.78572574 0.95715461 
0.30996738 0.34571412 0.96518011 
0.43588607 0.95445467 0.25970363 
0.86765043 0.25372666 0.96102546 
0.53209514 0.29564555 0.22472021 
0.80996738 0.15428588 0.53481989 
0.63234957 0.75372666 0.46102546 
0.69003262 0.65428588 0.03481989 
0.03209514 0.20435445 0.27527979 
0.24298824 0.04372424 0.00818734 
0.74298824 0.45627576 0.49181266 
0.13234957 0.74627334 0.03897454 
0.25701176 0.54372424 0.50818734 
0.93588607 0.54554533 0.24029637 
0.96790486 0.79564555 0.72472021 
0.36765043 0.24627334 0.53897454 
0.56411393 0.04554533 0.74029637 
0.06411393 0.45445467 0.75970363 
0.46790486 0.70435445 0.77527979 
0.75701176 0.95627576 0.99181266 
0.19003262 0.84571412 0.46518011 
