System
1.0
3.93833479 0.0 0.0
-1.9691674 3.41069798 0.0
0.0 0.0 15.83921642
Ni Sb Te
4 2 4
direct
0.0 0.0 0.1664902 
0.0 0.0 0.6664902 
0.0 0.0 0.8335098 
0.0 0.0 0.3335098 
0.33333333 0.66666667 0.25 
0.66666667 0.33333333 0.75 
0.33333333 0.66666667 0.59020259 
0.66666667 0.33333333 0.09020259 
0.66666667 0.33333333 0.40979741 
0.33333333 0.66666667 0.90979741 
