System
1.0
3.93304399 0.0 0.0
0.0 3.93304399 0.0
-0.0 0.0 8.70430571
Hf Ga Sb
2 1 3
direct
0.5 -0.0 0.73922739 
0.0 0.5 0.26077261 
0.5 0.5 0.0 
0.5 -0.0 0.38419768 
0.0 0.5 0.61580232 
0.0 -0.0 0.0 
