System
1.0
5.74149387 0.00451566 -1.71485471
0.00663035 7.0584556 0.00347494
-0.00073569 0.00515901 10.48978449
Ti Sn
8 12
direct
0.08307994 0.45183821 0.16101654 
0.58622288 0.24987776 0.67280086 
0.91324163 0.75023619 0.32772853 
0.41330332 0.74876145 0.32748179 
0.58123643 0.04788316 0.16115705 
0.08585536 0.25150702 0.67286418 
0.92146884 0.54794323 0.8401668 
0.4182199 0.95372294 0.83750177 
0.22540065 0.42694215 0.44861615 
0.87815829 0.92584464 0.75534805 
0.72350727 0.07580657 0.44731541 
0.27625089 0.92838891 0.550995 
0.77328909 0.75222062 0.04079453 
0.12149379 0.07258379 0.24205246 
0.37875018 0.57328339 0.75847306 
0.72931302 0.25000094 0.95778132 
0.77385726 0.57470417 0.55265661 
0.27347395 0.75071371 0.04201516 
0.22863893 0.24813685 0.9587775 
0.62611438 0.42694631 0.24202522 
