System
1.0
3.66955279 -0.00930048 2.10985286
1.21441601 3.46278736 2.10985286
-0.70205526 -0.49642792 81.43013639
Cu I
16 19
direct
0.25988562 0.25988562 0.06776433 
0.25326428 0.25326428 0.17074689 
0.27512808 0.27512808 0.27609501 
0.26977367 0.26977367 0.32987563 
0.26867206 0.26867206 0.38273136 
0.26841286 0.26841286 0.43537174 
0.26857451 0.26857451 0.48798632 
0.26887798 0.26887798 0.54062372 
0.26873592 0.26873592 0.59324694 
0.26875621 0.26875621 0.64590361 
0.26864567 0.26864567 0.69854371 
0.2684095 0.2684095 0.75119129 
0.26822183 0.26822183 0.8038542 
0.26832238 0.26832238 0.85647967 
0.26675689 0.26675689 0.90938386 
0.2590792 0.2590792 0.96346231 
0.00581211 0.00581211 0.00011241 
0.01547399 0.01547399 0.05293917 
0.01131421 0.01131421 0.1046772 
0.00971807 0.00971807 0.15561387 
0.01430253 0.01430253 0.26396811 
0.02096296 0.02096296 0.20775012 
0.01604467 0.01604467 0.36937499 
0.0156837 0.0156837 0.31678395 
0.01700195 0.01700195 0.4744538 
0.01643443 0.01643443 0.42191345 
0.01759045 0.01759045 0.52703124 
0.01750482 0.01750482 0.57963057 
0.01775988 0.01775988 0.68486653 
0.01775468 0.01775468 0.63224685 
0.01780544 0.01780544 0.73747439 
0.01795731 0.01795731 0.79007414 
0.01929218 0.01929218 0.89509038 
0.01962328 0.01962328 0.94758242 
0.01844669 0.01844669 0.84262882 
