System
1.0
9.07585958 -0.02511483 0.0
-0.04876519 8.34142392 0.0
0.0 0.0 4.69643368
H Se O
8 4 16
direct
0.95960736 0.02411338 0.40166305 
0.54039264 0.97588662 0.90166305 
0.74364341 0.71319748 0.47028602 
0.75635659 0.28680252 0.97028602 
0.25047044 0.78135848 0.48966411 
0.24952956 0.21864152 0.98966411 
0.04485218 0.5221226 0.0551818 
0.45514782 0.4778774 0.5551818 
0.63385192 0.71805149 0.90957815 
0.86614808 0.28194851 0.40957815 
0.13986627 0.7809628 0.05255202 
0.36013373 0.2190372 0.55255202 
0.4917535 0.6334275 0.75323706 
0.0082465 0.3665725 0.25323706 
0.00113407 0.86684246 0.21166259 
0.49886593 0.13315754 0.71166259 
0.70774983 0.62540713 0.18100907 
0.79225017 0.37459287 0.68100907 
0.21763214 0.87428993 0.78433926 
0.28236786 0.12571007 0.28433926 
0.76966906 0.76578545 0.66245744 
0.73033094 0.23421455 0.16245744 
0.2732972 0.72722576 0.29919688 
0.2267028 0.27277424 0.79919688 
0.58661228 0.90291684 0.04983435 
0.91338772 0.09708316 0.54983435 
0.08584241 0.59915486 0.90658319 
0.41415759 0.40084514 0.40658319 
