System
1.0
8.72192976 -0.03887197 1.66202744
0.80521316 8.68476938 1.66202744
-0.00764249 -0.00693557 19.06818411
P Pb Xe F
6 3 11 58
direct
0.32898037 0.32898037 0.93865023 
0.85533257 0.85533257 0.30594059 
0.14466743 0.14466743 0.69405941 
0.70224054 0.70224054 0.69703209 
0.29775946 0.29775946 0.30296791 
0.67101963 0.67101963 0.06134977 
0.87328191 0.87328191 0.85975134 
0.12671809 0.12671809 0.14024866 
0.5 0.5 0.5 
0.65283978 0.1393858 0.10116318 
0.5 0.0 0.5 
0.63980307 0.20897587 0.70052037 
0.79102413 0.36019693 0.29947963 
0.8606142 0.34716022 0.89883682 
0.1393858 0.65283978 0.10116318 
0.0 0.0 0.5 
0.36019693 0.79102413 0.29947963 
0.20897587 0.63980307 0.70052037 
0.34716022 0.8606142 0.89883682 
0.0 0.5 0.5 
0.2544261 0.2544261 0.71724166 
0.26278592 0.86921825 0.20693022 
0.12138004 0.41690223 0.12381042 
0.89169168 0.15407382 0.07602052 
0.10830832 0.84592618 0.92397948 
0.262398 0.262398 0.87747196 
0.73721408 0.13078175 0.79306978 
0.21311547 0.21311547 0.00325971 
0.28462532 0.54176944 0.60700164 
0.7455739 0.7455739 0.28275834 
0.39529418 0.39529418 0.34073235 
0.2375245 0.49699942 0.46848076 
0.96844314 0.96844314 0.32635721 
0.54778686 0.74493748 0.75309923 
0.45823056 0.71537468 0.39299836 
0.8600301 0.66486268 0.64050788 
0.41690223 0.12138004 0.12381042 
0.03155686 0.03155686 0.67364279 
0.43797093 0.43797093 0.87701585 
0.25506252 0.45221314 0.24690077 
0.53513861 0.812527 0.05969267 
0.80263778 0.80263778 0.73609382 
0.45221314 0.25506252 0.24690077 
0.7624755 0.50300058 0.53151924 
0.28287722 0.00566259 0.69454644 
0.2042567 0.2042567 0.60763374 
0.56202907 0.56202907 0.12298415 
0.7957433 0.7957433 0.39236626 
0.00566259 0.28287722 0.69454644 
0.87861996 0.58309777 0.87618958 
0.33513732 0.1399699 0.35949212 
0.54176944 0.28462532 0.60700164 
0.66486268 0.8600301 0.64050788 
0.86921825 0.26278592 0.20693022 
0.78688453 0.78688453 0.99674029 
0.46486139 0.187473 0.94030733 
0.17588439 0.82411561 0.5 
0.15407382 0.89169168 0.07602052 
0.74493748 0.54778686 0.75309923 
0.60470582 0.60470582 0.65926765 
0.49699942 0.2375245 0.46848076 
0.61092849 0.61092849 0.99668303 
0.08122795 0.08122795 0.78202296 
0.71712278 0.99433741 0.30545356 
0.58309777 0.87861996 0.87618958 
0.1399699 0.33513732 0.35949212 
0.812527 0.53513861 0.05969267 
0.737602 0.737602 0.12252804 
0.13078175 0.73721408 0.79306978 
0.50300058 0.7624755 0.53151924 
0.71537468 0.45823056 0.39299836 
0.91877205 0.91877205 0.21797704 
0.38907151 0.38907151 0.00331697 
0.84592618 0.10830832 0.92397948 
0.99433741 0.71712278 0.30545356 
0.82411561 0.17588439 0.5 
0.19736222 0.19736222 0.26390618 
0.187473 0.46486139 0.94030733 
