System
1.0
5.29477845 -0.04241774 0.0
-0.00055276 9.29575623 0.0
0.0 0.0 5.96485181
Mn P O
4 4 16
direct
0.6676044 0.85947816 0.88010766 
0.8323956 0.64052184 0.38010766 
0.1676044 0.35947816 0.61989234 
0.3323956 0.14052184 0.11989234 
0.24421889 0.86651854 0.16274357 
0.25578111 0.63348146 0.66274357 
0.74421889 0.36651854 0.33725643 
0.75578111 0.13348146 0.83725643 
0.50460842 0.27237357 0.33499496 
0.48695515 0.77278664 0.14709457 
0.25192214 0.96228548 0.94322376 
0.2568077 0.98773121 0.34187836 
0.7431923 0.01226879 0.65812164 
0.00460842 0.77237357 0.16500504 
0.51304485 0.22721336 0.85290543 
0.7568077 0.48773121 0.15812164 
0.24807786 0.53771452 0.44322376 
0.01304485 0.72721336 0.64709457 
0.49539158 0.72762643 0.66500504 
0.99539158 0.22762643 0.83499496 
0.74807786 0.03771452 0.05677624 
0.98695515 0.27278664 0.35290543 
0.75192214 0.46228548 0.55677624 
0.2431923 0.51226879 0.84187836 
