System
1.0
6.08167581 4.68662829 0.0
-6.08167581 4.68662829 0.0
0.0 0.0 14.78118641
Li B H O
4 24 52 14
direct
0.0909567 0.81486912 0.25 
0.18513088 0.9090433 0.75 
0.9090433 0.18513088 0.75 
0.81486912 0.0909567 0.25 
0.32039118 0.32039118 0.98474604 
0.67960882 0.67960882 0.01525396 
0.32039118 0.32039118 0.51525396 
0.67960882 0.67960882 0.48474604 
0.3986694 0.3986694 0.0944791 
0.6013306 0.6013306 0.9055209 
0.3986694 0.3986694 0.4055209 
0.6013306 0.6013306 0.5944791 
0.6363588 0.48974271 0.08909042 
0.51025729 0.3636412 0.91090958 
0.6363588 0.48974271 0.41090958 
0.51025729 0.3636412 0.58909042 
0.3636412 0.51025729 0.91090958 
0.48974271 0.6363588 0.08909042 
0.3636412 0.51025729 0.58909042 
0.48974271 0.6363588 0.41090958 
0.29514839 0.53173059 0.0243775 
0.46826941 0.70485161 0.9756225 
0.29514839 0.53173059 0.4756225 
0.46826941 0.70485161 0.5243775 
0.70485161 0.46826941 0.9756225 
0.53173059 0.29514839 0.0243775 
0.70485161 0.46826941 0.5243775 
0.53173059 0.29514839 0.4756225 
0.76237245 0.76237245 0.19765613 
0.23762755 0.23762755 0.80234387 
0.76237245 0.76237245 0.30234387 
0.23762755 0.23762755 0.69765613 
0.52144887 0.16221792 0.19756872 
0.83778208 0.47855113 0.80243128 
0.52144887 0.16221792 0.30243128 
0.83778208 0.47855113 0.69756872 
0.47855113 0.83778208 0.80243128 
0.16221792 0.52144887 0.19756872 
0.47855113 0.83778208 0.69756872 
0.16221792 0.52144887 0.30243128 
0.03624993 0.21363957 0.39350068 
0.78636043 0.96375007 0.60649932 
0.03624993 0.21363957 0.10649932 
0.78636043 0.96375007 0.89350068 
0.96375007 0.78636043 0.60649932 
0.21363957 0.03624993 0.39350068 
0.96375007 0.78636043 0.89350068 
0.21363957 0.03624993 0.10649932 
0.84646608 0.24414105 0.40640232 
0.75585895 0.15353392 0.59359768 
0.84646608 0.24414105 0.09359768 
0.75585895 0.15353392 0.90640232 
0.15353392 0.75585895 0.59359768 
0.24414105 0.84646608 0.40640232 
0.15353392 0.75585895 0.90640232 
0.24414105 0.84646608 0.09359768 
0.19304704 0.19304704 0.97391466 
0.80695296 0.80695296 0.02608534 
0.19304704 0.19304704 0.52608534 
0.80695296 0.80695296 0.47391466 
0.32524399 0.32524399 0.16189238 
0.67475601 0.67475601 0.83810762 
0.32524399 0.32524399 0.33810762 
0.67475601 0.67475601 0.66189238 
0.73297909 0.48009982 0.15172958 
0.51990018 0.26702091 0.84827042 
0.73297909 0.48009982 0.34827042 
0.51990018 0.26702091 0.65172958 
0.26702091 0.51990018 0.84827042 
0.48009982 0.73297909 0.15172958 
0.26702091 0.51990018 0.65172958 
0.48009982 0.73297909 0.34827042 
0.1498436 0.55660002 0.04135188 
0.44339998 0.8501564 0.95864812 
0.1498436 0.55660002 0.45864812 
0.44339998 0.8501564 0.54135188 
0.8501564 0.44339998 0.95864812 
0.55660002 0.1498436 0.04135188 
0.8501564 0.44339998 0.54135188 
0.55660002 0.1498436 0.45864812 
0.8268002 0.8268002 0.25 
0.1731998 0.1731998 0.75 
0.56911578 0.11259732 0.25 
0.88740268 0.43088422 0.75 
0.43088422 0.88740268 0.75 
0.11259732 0.56911578 0.25 
0.91425851 0.17994951 0.36892602 
0.82005049 0.08574149 0.63107398 
0.91425851 0.17994951 0.13107398 
0.82005049 0.08574149 0.86892602 
0.08574149 0.82005049 0.63107398 
0.17994951 0.91425851 0.36892602 
0.08574149 0.82005049 0.86892602 
0.17994951 0.91425851 0.13107398 
