System
1.0
8.63882824 0.0 0.0
0.0 8.79686057 0.0
0.0 0.0 22.64672969
Sn Te Tl
8 24 16
direct
0.80319263 0.99453732 0.33482904 
0.80319263 0.99453732 0.16517096 
0.30319263 0.50546268 0.33482904 
0.69680737 0.49453732 0.83482904 
0.19680737 0.00546268 0.66517096 
0.19680737 0.00546268 0.83482904 
0.69680737 0.49453732 0.66517096 
0.30319263 0.50546268 0.16517096 
0.90233516 0.30977265 0.60302015 
0.40233516 0.19022735 0.89697985 
0.59766484 0.80977265 0.39697985 
0.09766484 0.69022735 0.10302015 
0.09766484 0.69022735 0.39697985 
0.59766484 0.80977265 0.10302015 
0.40233516 0.19022735 0.60302015 
0.90233516 0.30977265 0.89697985 
0.97976731 0.17932562 0.09032413 
0.97976731 0.17932562 0.40967587 
0.47976731 0.32067438 0.09032413 
0.52023269 0.67932562 0.59032413 
0.02023269 0.82067438 0.90967587 
0.02023269 0.82067438 0.59032413 
0.52023269 0.67932562 0.90967587 
0.47976731 0.32067438 0.40967587 
0.63279447 0.17046501 0.25 
0.13279447 0.32953499 0.25 
0.86720553 0.67046501 0.75 
0.36720553 0.82953499 0.75 
0.022161 0.17453648 0.75 
0.522161 0.32546352 0.75 
0.477839 0.67453648 0.25 
0.977839 0.82546352 0.25 
0.70062677 0.98843027 0.66832584 
0.20062677 0.51156973 0.83167416 
0.79937323 0.48843027 0.33167416 
0.29937323 0.01156973 0.16832584 
0.29937323 0.01156973 0.33167416 
0.79937323 0.48843027 0.16832584 
0.20062677 0.51156973 0.66832584 
0.70062677 0.98843027 0.83167416 
0.73647411 0.03376956 0.51014174 
0.23647411 0.46623044 0.98985826 
0.76352589 0.53376956 0.48985826 
0.26352589 0.96623044 0.01014174 
0.26352589 0.96623044 0.48985826 
0.76352589 0.53376956 0.01014174 
0.23647411 0.46623044 0.51014174 
0.73647411 0.03376956 0.98985826 
