System
1.0
8.02773953 -0.00549668 0.0
-2.1944629 8.6238334 0.0
0.0 0.0 11.05068588
Cs Y P O
4 4 8 28
direct
0.80008044 0.94777208 0.69084489 
0.19991956 0.55222792 0.19084489 
0.19991956 0.05222792 0.30915511 
0.80008044 0.44777208 0.80915511 
0.7633305 0.24739994 0.40053027 
0.2366695 0.25260006 0.90053027 
0.2366695 0.75260006 0.59946973 
0.7633305 0.74739994 0.09946973 
0.57265945 0.81729888 0.37033647 
0.42734055 0.68270112 0.87033647 
0.42734055 0.18270112 0.62966353 
0.57265945 0.31729888 0.12966353 
0.86879027 0.17841116 0.09638738 
0.13120973 0.32158884 0.59638738 
0.13120973 0.82158884 0.90361262 
0.86879027 0.67841116 0.40361262 
0.68275944 0.21000072 0.06134127 
0.31724056 0.28999928 0.56134127 
0.31724056 0.78999928 0.93865873 
0.68275944 0.71000072 0.43865873 
0.91508724 0.73862478 0.2743493 
0.08491276 0.76137522 0.7743493 
0.08491276 0.26137522 0.7256507 
0.91508724 0.23862478 0.2256507 
0.39437925 0.76867432 0.42850666 
0.60562075 0.73132568 0.92850666 
0.60562075 0.23132568 0.57149334 
0.39437925 0.26867432 0.07149334 
0.84638383 0.50450168 0.41473948 
0.15361617 0.99549832 0.91473948 
0.15361617 0.49549832 0.58526052 
0.84638383 0.00450168 0.08526052 
0.66588881 0.98552961 0.39630482 
0.33411119 0.51447039 0.89630482 
0.33411119 0.01447039 0.60369518 
0.66588881 0.48552961 0.10369518 
0.99650499 0.77121286 0.49621547 
0.00349501 0.72878714 0.99621547 
0.00349501 0.22878714 0.50378453 
0.99650499 0.27121286 0.00378453 
0.56247912 0.77484469 0.23575201 
0.43752088 0.72515531 0.73575201 
0.43752088 0.22515531 0.76424799 
0.56247912 0.27484469 0.26424799 
