System
1.0
4.33466167 0.0 -1.16420369
0.0 7.68421917 0.0
0.00378698 0.0 8.66579133
In Yb Pt
8 2 2
direct
0.5 0.5 0.0 
0.5 0.0 0.0 
0.93725799 0.75 0.87451598 
0.06274201 0.25 0.12548402 
0.68185968 0.04764853 0.36371937 
0.31814032 0.95235147 0.63628063 
0.31814032 0.54764853 0.63628063 
0.68185968 0.45235147 0.36371937 
0.8682341 0.25 0.73646821 
0.1317659 0.75 0.26353179 
0.22738644 0.25 0.45477288 
0.77261356 0.75 0.54522712 
