System
1.0
6.92319595 0.02138958 12.68231328
3.23323016 6.14091936 12.69469584
-0.02667135 0.04241814 28.89869088
Ba Na Ca P O F
2 10 14 12 48 6
direct
0.99926915 0.99859701 0.99976741 
0.00116504 0.00139485 0.50006976 
0.30794998 0.3158867 0.39515778 
0.31327811 0.78697565 0.1574579 
0.2225262 0.68475036 0.33957213 
0.68093559 0.22240126 0.34440816 
0.68056606 0.6955592 0.1077643 
0.3041532 0.78276918 0.66047239 
0.31989988 0.31584451 0.88931406 
0.78285357 0.30418546 0.66045108 
0.20799175 0.68338015 0.84676335 
0.6827596 0.20788209 0.8470898 
0.07192496 0.55629714 0.28001605 
0.55285657 0.07009519 0.2809917 
0.55522485 0.56037148 0.03472812 
0.78571845 0.31525433 0.15653495 
0.44275092 0.92777774 0.22009684 
0.44238101 0.44294928 0.46337595 
0.92701931 0.44466581 0.22038134 
0.0728412 0.55947756 0.77846406 
0.55641687 0.55649909 0.53717474 
0.5595038 0.07306954 0.77830173 
0.68516512 0.68523735 0.60835859 
0.43860267 0.92922197 0.7237748 
0.44061641 0.44120448 0.96435269 
0.92927092 0.43852327 0.72379772 
0.08416323 0.08293639 0.04184886 
0.20712852 0.20652622 0.10330736 
0.32396134 0.32398879 0.1623431 
0.08403932 0.08408149 0.54127961 
0.20944023 0.20949505 0.60202449 
0.32480072 0.32466737 0.66166691 
0.67603656 0.6755516 0.3378536 
0.79529452 0.79353712 0.39529745 
0.91662914 0.91599527 0.45818638 
0.67594291 0.67581113 0.83775691 
0.79414409 0.79036043 0.89638387 
0.91716684 0.91697135 0.95769631 
0.12104691 0.12117982 0.06031453 
0.2381333 0.24863683 0.12467489 
0.19353542 0.544148 0.09665182 
0.19357973 0.19327589 0.27219477 
0.54341989 0.19372307 0.09693325 
0.36149718 0.36175151 0.18114774 
0.18959783 0.19017802 0.41599145 
0.18846979 0.83377599 0.09520162 
0.83091859 0.19238272 0.09692023 
0.12057183 0.12049715 0.56026603 
0.04475201 0.68334425 0.34054537 
0.68772186 0.04582159 0.33752654 
0.68741346 0.6753089 0.022548 
0.31762948 0.31801186 0.47768353 
0.31678188 0.9565423 0.15890056 
0.95657261 0.31363339 0.15670429 
0.24573898 0.24574543 0.62347586 
0.16504369 0.81065996 0.40591969 
0.81070978 0.16483299 0.40578869 
0.81141145 0.81148355 0.08282592 
0.19415021 0.19381168 0.77169021 
0.19300538 0.54442158 0.59659257 
0.63818698 0.63866495 0.31894062 
0.54399858 0.19320102 0.59679889 
0.4563058 0.80611423 0.40322238 
0.36197797 0.36167345 0.68078748 
0.80612546 0.80668183 0.22826692 
0.8069308 0.45590433 0.4032719 
0.1883767 0.18832944 0.917649 
0.18973393 0.83384157 0.59410823 
0.83369843 0.1899033 0.59410393 
0.75041693 0.75206153 0.38075945 
0.04320065 0.68076396 0.84228363 
0.68121552 0.03929272 0.84417625 
0.68588005 0.69168648 0.51977249 
0.31684804 0.31778755 0.97834575 
0.3199029 0.95826321 0.65662991 
0.95831717 0.31987432 0.65646094 
0.87888448 0.8786092 0.43966562 
0.16765158 0.81078967 0.90508281 
0.81065302 0.16751617 0.90511879 
0.80643278 0.80622746 0.58486604 
0.63787389 0.63791391 0.819328 
0.45596367 0.80667982 0.90293982 
0.80651417 0.45545671 0.90347847 
0.8063897 0.80642046 0.72798016 
0.75347848 0.75353405 0.8772121 
0.87970428 0.87959134 0.93967613 
0.43997209 0.42279409 0.2112241 
0.50680473 0.49542868 0.24811539 
0.57348811 0.57186142 0.28682978 
0.42786019 0.42721496 0.71304809 
0.50502956 0.50435945 0.74599342 
0.57809348 0.5781994 0.77908375 
