System
1.0
6.64476243 0.0 0.0
0.0 10.21018159 0.0
0.0 0.0 16.31597695
O P K Mn
48 12 4 16
direct
0.25 0.05317947 0.76772715 
0.75 0.94682053 0.23227285 
0.25 0.55317947 0.73227285 
0.75 0.44682053 0.26772715 
0.94029152 0.74401875 0.17873278 
0.44029152 0.25598125 0.82126722 
0.55970848 0.24401875 0.32126722 
0.05970848 0.75598125 0.67873278 
0.05970848 0.25598125 0.82126722 
0.55970848 0.74401875 0.17873278 
0.44029152 0.75598125 0.67873278 
0.94029152 0.24401875 0.32126722 
0.25 0.24993099 0.68439095 
0.75 0.75006901 0.31560905 
0.25 0.74993099 0.81560905 
0.75 0.25006901 0.18439095 
0.94019215 0.91014533 0.90129383 
0.44019215 0.08985467 0.09870617 
0.55980785 0.41014533 0.59870617 
0.93986862 0.56103295 0.8914199 
0.05980785 0.58985467 0.40129383 
0.55980785 0.91014533 0.90129383 
0.44019215 0.58985467 0.40129383 
0.94019215 0.41014533 0.59870617 
0.25 0.10412378 0.96531487 
0.75 0.89587622 0.03468513 
0.25 0.60412378 0.53468513 
0.75 0.39587622 0.46531487 
0.25 0.38903772 0.45651484 
0.75 0.61096228 0.54348516 
0.25 0.88903772 0.04348516 
0.75 0.11096228 0.95651484 
0.75 0.11075557 0.47645755 
0.25 0.88924443 0.52354245 
0.75 0.61075557 0.02354245 
0.25 0.38924443 0.97645755 
0.75 0.37950221 0.96743325 
0.25 0.62049779 0.03256675 
0.75 0.87950221 0.53256675 
0.25 0.12049779 0.46743325 
0.93986862 0.06103295 0.6085801 
0.43986862 0.93896705 0.3914199 
0.56013138 0.56103295 0.8914199 
0.06013138 0.43896705 0.1085801 
0.06013138 0.93896705 0.3914199 
0.56013138 0.06103295 0.6085801 
0.43986862 0.43896705 0.1085801 
0.05980785 0.08985467 0.09870617 
0.25 0.20665934 0.77595831 
0.75 0.79334066 0.22404169 
0.25 0.70665934 0.72404169 
0.75 0.29334066 0.27595831 
0.25 0.04199899 0.05520873 
0.75 0.95800101 0.94479127 
0.25 0.54199899 0.44479127 
0.75 0.0282901 0.55978248 
0.75 0.45800101 0.55520873 
0.75 0.5282901 0.94021752 
0.25 0.9717099 0.44021752 
0.25 0.4717099 0.05978248 
0.25 0.75118855 0.28587789 
0.75 0.74881145 0.78587789 
0.25 0.25118855 0.21412211 
0.75 0.24881145 0.71412211 
0.99792142 0.75248851 0.05301644 
0.49792142 0.74751149 0.55301644 
0.50207858 0.75248851 0.05301644 
0.00207858 0.24751149 0.94698356 
0.25 0.43463769 0.62678501 
0.75 0.56536231 0.37321499 
0.25 0.93463769 0.87321499 
0.75 0.06536231 0.12678501 
0.25 0.04323164 0.63061945 
0.75 0.95676836 0.36938055 
0.25 0.54323164 0.86938055 
0.75 0.45676836 0.13061945 
0.49792142 0.24751149 0.94698356 
0.50207858 0.25248851 0.44698356 
0.00207858 0.74751149 0.55301644 
0.99792142 0.25248851 0.44698356 
