System
1.0
6.66791827 0.0 0.0
0.0 6.66791827 0.0
0.0 0.0 6.66791827
Co Mo N
8 12 4
direct
0.06901023 0.06901023 0.06901023 
0.31901023 0.18098977 0.81901023 
0.81901023 0.31901023 0.18098977 
0.18098977 0.81901023 0.31901023 
0.43098977 0.93098977 0.56901023 
0.56901023 0.43098977 0.93098977 
0.93098977 0.56901023 0.43098977 
0.68098977 0.68098977 0.68098977 
0.125 0.2014006 0.4514006 
0.375 0.7985994 0.9514006 
0.875 0.7014006 0.0485994 
0.2014006 0.4514006 0.125 
0.7985994 0.9514006 0.375 
0.0485994 0.875 0.7014006 
0.4514006 0.125 0.2014006 
0.2985994 0.5485994 0.625 
0.9514006 0.375 0.7985994 
0.5485994 0.625 0.2985994 
0.7014006 0.0485994 0.875 
0.625 0.2985994 0.5485994 
0.375 0.375 0.375 
0.625 0.875 0.125 
0.125 0.625 0.875 
0.875 0.125 0.625 
