System
1.0
2.22619123 3.8537853 0.0
-2.22619123 3.8537853 0.0
0.0 0.0 7.27885769
H O
8 4
direct
0.33731565 0.33731565 0.69712533 
0.66268435 0.66268435 0.19712533 
0.45977574 0.45977574 0.51958303 
0.54022426 0.54022426 0.01958303 
0.90917006 0.55174516 0.48322584 
0.55174516 0.90917006 0.48322584 
0.09082994 0.44825484 0.98322584 
0.44825484 0.09082994 0.98322584 
0.33539131 0.33539131 0.56024918 
0.66460869 0.66460869 0.06024918 
0.66655574 0.66655574 0.43459079 
0.33344426 0.33344426 0.93459079 
