System
1.0
6.46059788 -0.07680824 3.62836007
2.08141441 5.95199752 3.63101018
-0.06062804 -0.03759397 36.41405619
Li Fe Cl
20 10 40
direct
0.40697679 0.04339922 0.20849615 
0.51227588 0.98832478 0.09878103 
0.51256329 0.4886558 0.19997638 
0.3961816 0.03031472 0.41240963 
0.01421432 0.49430242 0.49573514 
0.92612624 0.85699367 0.16929511 
0.50738982 0.00911771 0.29829974 
0.50127529 0.48517327 0.40377368 
-0.00062619 0.502513 0.69635647 
0.92852512 0.8445344 0.37051544 
0.07140999 0.16401186 0.82652114 
0.49811592 0.0219053 0.49671982 
0.98226242 0.48742822 0.90809791 
0.50144296 0.00274318 0.80003898 
0.42727933 0.04432346 0.60102632 
0.92497183 0.85148491 0.57072113 
0.5093742 0.00471709 0.69696684 
0.93549592 0.84250858 0.77163715 
0.48460384 0.99680189 0.90615105 
0.8753279 0.86561352 0.9755989 
0.03498621 0.51068313 0.095722 
0.48482143 0.50127252 0.09470559 
0.00498867 0.49618132 0.30039519 
0.50477332 0.48998091 0.29793945 
0.51046677 0.48764613 0.49678715 
0.5084616 0.49474225 0.60630832 
0.51150487 0.49517522 0.69211674 
0.49848011 0.50179923 0.80060626 
0.48384932 0.49371762 0.90357685 
0.46934936 0.50904926 0.01102611 
0.24963939 0.27483098 0.05182684 
0.24396043 0.76701588 0.04993608 
0.25680416 0.26097551 0.14610955 
0.7213362 0.26751718 0.05102725 
0.24344445 0.26954664 0.25288706 
0.30161165 0.72451135 0.14418925 
0.73958405 0.25205225 0.14851136 
0.75898437 0.72041839 0.05489069 
0.2582653 0.25975416 0.34708635 
0.25552744 0.73615694 0.25193391 
0.7180055 0.27131286 0.25324235 
0.76707192 0.73202881 0.14616053 
0.25681328 0.25915719 0.45144363 
0.30695933 0.72405758 0.34480333 
0.7571681 0.25956873 0.34641311 
0.25694806 0.27015476 0.54621088 
0.74689011 0.74271978 0.2509688 
0.26080879 0.73171591 0.45266893 
0.7684618 0.72990734 0.34565878 
0.73109326 0.26165314 0.4541051 
0.2708255 0.26177161 0.65018677 
0.30262469 0.71954989 0.54902286 
0.72862552 0.25895595 0.55289432 
0.26957271 0.25395806 0.74721842 
0.72882072 0.75091067 0.45104287 
0.2557119 0.7397466 0.65134574 
0.71967127 0.74815694 0.55506814 
0.74087076 0.25024208 0.65148614 
0.2620197 0.26033565 0.84699861 
0.30736782 0.72259434 0.74529841 
0.25753773 0.7551606 0.84729858 
0.74190836 0.25165885 0.75069857 
0.73901112 0.73909826 0.65193999 
0.25576123 0.27451912 0.94431286 
0.70391768 0.26606219 0.85269641 
0.73986448 0.74007623 0.75192571 
0.27292599 0.73348561 0.95072604 
0.72623177 0.27222101 0.94973241 
0.72509838 0.74596282 0.85138537 
0.72538693 0.73536359 0.95234636 
