System
1.0
16.2674316 0.0 0.0
0.0 16.07750769 0.0
0.0 0.0 5.65596438
Li B H C O
8 8 16 32 72
direct
0.154428 0.2482386 0.62318392 
0.654428 0.2517614 0.37681608 
0.845572 0.7482386 0.87681608 
0.345572 0.7517614 0.12318392 
0.845572 0.7517614 0.37681608 
0.345572 0.7482386 0.62318392 
0.154428 0.2517614 0.12318392 
0.654428 0.2482386 0.87681608 
0.91021565 0.44250645 0.71915739 
0.41021565 0.05749355 0.28084261 
0.08978435 0.94250645 0.78084261 
0.58978435 0.55749355 0.21915739 
0.08978435 0.55749355 0.28084261 
0.58978435 0.94250645 0.71915739 
0.91021565 0.05749355 0.21915739 
0.41021565 0.44250645 0.78084261 
0.29075111 0.22841872 0.36709274 
0.79075111 0.27158128 0.63290726 
0.70924889 0.72841872 0.13290726 
0.20924889 0.77158128 0.86709274 
0.70924889 0.77158128 0.63290726 
0.20924889 0.72841872 0.36709274 
0.29075111 0.27158128 0.86709274 
0.79075111 0.22841872 0.13290726 
0.23805654 0.14579565 0.33645073 
0.73805654 0.35420435 0.66354927 
0.76194346 0.64579565 0.16354927 
0.26194346 0.85420435 0.83645073 
0.76194346 0.85420435 0.66354927 
0.26194346 0.64579565 0.33645073 
0.23805654 0.35420435 0.83645073 
0.73805654 0.14579565 0.16354927 
0.00394248 0.34565031 0.85307737 
0.50394248 0.15434969 0.14692263 
0.99605752 0.84565031 0.64692263 
0.49605752 0.65434969 0.35307737 
0.99605752 0.65434969 0.14692263 
0.49605752 0.84565031 0.85307737 
0.00394248 0.15434969 0.35307737 
0.50394248 0.34565031 0.64692263 
0.92081279 0.33275222 0.98039021 
0.42081279 0.16724778 0.01960979 
0.07918721 0.83275222 0.51960979 
0.57918721 0.66724778 0.48039021 
0.07918721 0.66724778 0.01960979 
0.57918721 0.83275222 0.98039021 
0.92081279 0.16724778 0.48039021 
0.42081279 0.33275222 0.51960979 
0.86687947 0.57412118 0.62463051 
0.36687947 0.92587882 0.37536949 
0.13312053 0.07412118 0.87536949 
0.63312053 0.42587882 0.12463051 
0.13312053 0.42587882 0.37536949 
0.63312053 0.07412118 0.62463051 
0.86687947 0.92587882 0.12463051 
0.36687947 0.57412118 0.87536949 
0.83806153 0.51310273 0.431265 
0.33806153 0.98689727 0.568735 
0.16193847 0.01310273 0.068735 
0.66193847 0.48689727 0.931265 
0.16193847 0.48689727 0.568735 
0.66193847 0.01310273 0.431265 
0.83806153 0.98689727 0.931265 
0.33806153 0.51310273 0.068735 
0.86680875 0.43804415 0.48885555 
0.36680875 0.06195585 0.51114445 
0.13319125 0.93804415 0.01114445 
0.63319125 0.56195585 0.98885555 
0.13319125 0.56195585 0.51114445 
0.63319125 0.93804415 0.48885555 
0.86680875 0.06195585 0.98885555 
0.36680875 0.43804415 0.01114445 
0.06599663 0.30397483 0.87787596 
0.56599663 0.19602517 0.12212404 
0.93400337 0.80397483 0.62212404 
0.43400337 0.69602517 0.37787596 
0.93400337 0.69602517 0.12212404 
0.43400337 0.80397483 0.87787596 
0.06599663 0.19602517 0.37787596 
0.56599663 0.30397483 0.62212404 
0.85242269 0.64871391 0.62976671 
0.35242269 0.85128609 0.37023329 
0.14757731 0.14871391 0.87023329 
0.64757731 0.35128609 0.12976671 
0.14757731 0.35128609 0.37023329 
0.64757731 0.14871391 0.62976671 
0.85242269 0.85128609 0.12976671 
0.35242269 0.64871391 0.87023329 
0.99566934 0.40930753 0.70492523 
0.49566934 0.09069247 0.29507477 
0.00433066 0.90930753 0.79507477 
0.50433066 0.59069247 0.20492523 
0.00433066 0.59069247 0.29507477 
0.50433066 0.90930753 0.70492523 
0.99566934 0.09069247 0.20492523 
0.49566934 0.40930753 0.79507477 
0.90389553 0.27784648 0.12056518 
0.40389553 0.22215352 0.87943482 
0.09610447 0.77784648 0.37943482 
0.59610447 0.72215352 0.62056518 
0.09610447 0.72215352 0.87943482 
0.59610447 0.77784648 0.12056518 
0.90389553 0.22215352 0.62056518 
0.40389553 0.27784648 0.37943482 
0.79678742 0.5304789 0.25883722 
0.29678742 0.9695211 0.74116278 
0.20321258 0.0304789 0.24116278 
0.70321258 0.4695211 0.75883722 
0.20321258 0.4695211 0.74116278 
0.70321258 0.0304789 0.25883722 
0.79678742 0.9695211 0.75883722 
0.29678742 0.5304789 0.24116278 
0.90947838 0.5322232 0.7848717 
0.40947838 0.9677768 0.2151283 
0.09052162 0.0322232 0.7151283 
0.59052162 0.4677768 0.2848717 
0.09052162 0.4677768 0.2151283 
0.59052162 0.0322232 0.7848717 
0.90947838 0.9677768 0.2848717 
0.40947838 0.5322232 0.7151283 
0.86927869 0.39042013 0.90050941 
0.36927869 0.10957987 0.09949059 
0.13072131 0.89042013 0.59949059 
0.63072131 0.60957987 0.40050941 
0.13072131 0.60957987 0.09949059 
0.63072131 0.89042013 0.90050941 
0.86927869 0.10957987 0.40050941 
0.36927869 0.39042013 0.59949059 
0.2347491 0.20553563 0.37271456 
0.7347491 0.29446437 0.62728544 
0.7652509 0.70553563 0.12728544 
0.2652509 0.79446437 0.87271456 
0.7652509 0.79446437 0.62728544 
0.2652509 0.70553563 0.37271456 
0.2347491 0.29446437 0.87271456 
0.7347491 0.20553563 0.12728544 
