System
1.0
5.43846831 3.13992531 2.72742935
-5.43843142 3.13989235 2.72739326
-9.84e-06 -6.27986045 2.7274597
Cr H O F
1 18 9 3
direct
0.00064781 0.00069102 0.00066455 
0.68002123 0.57285932 0.31116625 
0.57286062 0.31116157 0.68001946 
0.31116766 0.68001914 0.5728595 
0.51051293 0.69466087 0.31640649 
0.69466015 0.31639977 0.51051014 
0.31640498 0.51050706 0.69465969 
0.42994686 0.20801998 0.0991837 
0.20802236 0.09918903 0.42994549 
0.09918911 0.42995603 0.20802575 
0.29331267 0.19630676 0.85471898 
0.19630835 0.8547242 0.29330663 
0.85472637 0.29331475 0.19631007 
0.14015786 0.70844099 0.80065506 
0.70844089 0.80065323 0.14016135 
0.80065173 0.14015789 0.7084357 
0.89485301 0.57194163 0.79072209 
0.57194597 0.79071908 0.89485517 
0.79072152 0.8948506 0.5719463 
0.0135879 0.71827128 0.84716182 
0.71827562 0.84716047 0.01359245 
0.84715654 0.0135841 0.71827371 
0.2843858 0.14661355 0.9791119 
0.14661346 0.97909115 0.28437204 
0.97910174 0.28438511 0.14661385 
0.66576362 0.71798739 0.32920679 
0.71798882 0.32920284 0.66576055 
0.32919973 0.66576644 0.71798274 
0.66734864 0.32484102 0.27517896 
0.32484092 0.27516929 0.66734834 
0.27518515 0.66735446 0.32484447 
