System
1.0
4.40810218 0.0 0.0
-2.20405109 7.94885976 -0.65718536
0.0 -0.69811691 21.60657557
I Bi
8 8
direct
0.62311043 0.24622086 0.63823821 
0.37688957 0.75377914 0.36176179 
0.87612042 0.75224084 0.56990084 
0.12387958 0.24775916 0.43009916 
0.62389159 0.24778318 0.85463527 
0.37610841 0.75221682 0.14536473 
0.37520597 0.75041194 0.93052059 
0.62479403 0.24958806 0.06947941 
0.7464759 0.49295179 0.38792793 
0.2535241 0.50704821 0.61207207 
0.99621673 0.99243345 0.88732957 
0.00378327 0.00756655 0.11267043 
0.30646556 0.61293111 0.75438415 
0.69353444 0.38706889 0.24561585 
0.9376557 0.87531141 0.7460001 
0.0623443 0.12468859 0.2539999 
