System
1.0
6.24030861 0.0 0.0
0.0 6.24030861 0.0
0.0 0.0 8.71863594
Ti Mn O
4 8 16
direct
0.5 0.24472535 0.0 
0.75527465 0.5 0.75 
0.24472535 0.5 0.25 
0.5 0.75527465 0.5 
0.0 0.25516939 0.0 
0.74483061 0.0 0.75 
0.25516939 0.0 0.25 
0.0 0.74483061 0.5 
0.25208117 0.25208117 0.625 
0.74791883 0.25208117 0.375 
0.25208117 0.74791883 0.875 
0.74791883 0.74791883 0.125 
0.27212483 0.03686377 0.99656293 
0.96313623 0.27212483 0.74656293 
0.03686377 0.72787517 0.24656293 
0.27212483 0.96313623 0.50343707 
0.72787517 0.03686377 0.00343707 
0.72787517 0.96313623 0.49656293 
0.03686377 0.27212483 0.25343707 
0.96313623 0.72787517 0.75343707 
0.27076697 0.48584057 0.02258257 
0.51415943 0.27076697 0.77258257 
0.48584057 0.72923303 0.27258257 
0.27076697 0.51415943 0.47741743 
0.72923303 0.48584057 0.97741743 
0.72923303 0.51415943 0.52258257 
0.48584057 0.27076697 0.22741743 
0.51415943 0.72923303 0.72741743 
