System
1.0
7.08922438 0.0 -0.19827494
0.0 7.8389651 0.0
-0.01837699 0.0 10.4541869
K Bi P Se
2 2 4 12
direct
0.69818849 0.95698751 0.49961213 
0.30181151 0.45698751 0.50038787 
0.79311382 0.71026111 0.98198993 
0.20688618 0.21026111 0.01801007 
0.69212706 0.25121371 0.82509982 
0.30787294 0.75121371 0.17490018 
0.20351752 0.97007518 0.29862894 
0.79648248 0.47007518 0.70137106 
0.64980204 0.37113634 0.0190242 
0.17256756 0.88504793 0.49219099 
0.92378387 0.05756941 0.82692065 
0.41555213 0.17221178 0.26936981 
0.57418296 0.65507284 0.25755357 
0.58444787 0.67221178 0.73063019 
0.05550383 0.55692419 0.81212608 
0.94449617 0.05692419 0.18787392 
0.82743244 0.38504793 0.50780901 
0.35019796 0.87113634 0.9809758 
0.07621613 0.55756941 0.17307935 
0.42581704 0.15507284 0.74244643 
