System
1.0
9.26335528 0.0 -1.68445655
0.0 16.11862339 0.0
-0.63531186 0.0 11.81808764
Si H C O
12 12 36 12
direct
0.88801796 0.33465482 0.59454925 
0.11198204 0.83465482 0.90545075 
0.11198204 0.66534518 0.40545075 
0.88801796 0.16534518 0.09454925 
0.51588218 0.69074007 0.62150916 
0.48411782 0.19074007 0.87849084 
0.48411782 0.30925993 0.37849084 
0.51588218 0.80925993 0.12150916 
0.77131052 0.08176173 0.61254672 
0.22868948 0.58176173 0.88745328 
0.22868948 0.91823827 0.38745328 
0.77131052 0.41823827 0.11254672 
0.63287083 0.31937545 0.35857054 
0.36712917 0.81937545 0.14142946 
0.36712917 0.68062455 0.64142946 
0.63287083 0.18062455 0.85857054 
0.2799964 0.6630941 0.85374021 
0.7200036 0.1630941 0.64625979 
0.7200036 0.3369059 0.14625979 
0.2799964 0.8369059 0.35374021 
0.77351386 0.27592295 0.52831134 
0.22648614 0.77592295 0.97168866 
0.22648614 0.72407705 0.47168866 
0.77351386 0.22407705 0.02831134 
0.8500332 0.44562836 0.62877921 
0.1499668 0.94562836 0.87122079 
0.1499668 0.55437164 0.37122079 
0.8500332 0.05437164 0.12877921 
0.94231736 0.28795229 0.74119372 
0.05768264 0.78795229 0.75880628 
0.05768264 0.71204771 0.25880628 
0.94231736 0.21204771 0.24119372 
0.0589672 0.37482998 0.56040513 
0.9410328 0.87482998 0.93959487 
0.9410328 0.62517002 0.43959487 
0.0589672 0.12517002 0.06040513 
0.67720854 0.75673835 0.68470975 
0.32279146 0.25673835 0.81529025 
0.32279146 0.24326165 0.31529025 
0.67720854 0.74326165 0.18470975 
0.69205871 0.68116319 0.72099964 
0.30794129 0.18116319 0.77900036 
0.30794129 0.31883681 0.27900036 
0.69205871 0.81883681 0.22099964 
0.49065429 0.66825495 0.46607522 
0.50934571 0.16825495 0.03392478 
0.50934571 0.33174505 0.53392478 
0.49065429 0.83174505 0.96607522 
0.90101566 0.04375566 0.53018616 
0.09898434 0.54375566 0.96981384 
0.09898434 0.95624434 0.46981384 
0.90101566 0.45624434 0.03018616 
0.770688 0.04827246 0.46461504 
0.229312 0.54827246 0.03538496 
0.229312 0.95172754 0.53538496 
0.770688 0.45172754 0.96461504 
0.68393477 0.02256331 0.71149768 
0.31606523 0.52256331 0.78850232 
0.31606523 0.97743669 0.28850232 
0.68393477 0.47743669 0.21149768 
0.98731631 0.26888016 0.83689555 
0.01268369 0.76888016 0.66310445 
0.01268369 0.73111984 0.16310445 
0.98731631 0.23111984 0.33689555 
0.4920138 0.66084655 0.36835107 
0.5079862 0.16084655 0.13164893 
0.5079862 0.33915345 0.63164893 
0.4920138 0.83915345 0.86835107 
0.64156853 -0.00552477 0.7880178 
0.35843147 0.49447523 0.7119822 
0.35843147 0.00552477 0.2119822 
0.64156853 0.50552477 0.2880178 
