System
1.0
8.28053694 0.0 4.05360714
3.12817144 8.50163037 4.09427251
0.26773743 0.04156935 9.93744592
Cl Pd Cs
12 4 4
direct
0.89621753 0.54107141 0.66649353 
0.10378247 0.45892859 0.33350647 
0.60378247 0.33350647 0.45892859 
0.39621753 0.66649353 0.54107141 
0.99600232 0.15472805 0.8532673 
0.00399768 0.84527195 0.1467327 
0.50399768 0.1467327 0.84527195 
0.49600232 0.8532673 0.15472805 
0.70705528 0.51061812 0.07527133 
0.29294472 0.48938188 0.92472867 
0.79294472 0.92472867 0.48938188 
0.20705528 0.07527133 0.51061812 
0.05159627 0.30211136 0.5946961 
0.94840373 0.69788864 0.4053039 
0.44840373 0.4053039 0.69788864 
0.55159627 0.5946961 0.30211136 
0.57446259 0.17553741 0.17553741 
0.92553741 0.82446259 0.82446259 
0.42553741 0.82446259 0.82446259 
0.07446259 0.17553741 0.17553741 
