System
1.0
13.01268058 0.0 -0.56105389
0.0 8.8168623 0.0
-0.06832328 0.0 5.33594719
Li O P Mn
2 30 10 4
direct
0.4488182 0.00485369 0.5709665 
0.94881839 0.99514625 0.070968 
0.33235868 0.88803092 0.41613668 
0.96408874 0.84715111 0.34116433 
0.94020191 0.50712018 0.1960882 
0.8624753 0.65064735 0.56775264 
0.02784011 0.16982923 0.18191601 
0.03854858 0.15875378 0.66694659 
0.06539723 0.49697815 0.80197588 
0.13925759 0.35152976 0.42532796 
0.14687933 0.63198296 0.43218959 
0.17341699 0.87462106 0.09078365 
0.19211814 0.08075412 0.43000019 
0.25259873 0.47143153 0.74450343 
0.30624363 0.07896879 0.06023789 
0.96547346 0.8328436 0.82821824 
0.35723197 0.62926149 0.06498942 
0.36247475 0.34935259 0.06775278 
0.44020172 0.49287975 0.69608857 
0.46408933 0.15284883 0.84116291 
0.4654729 0.16715634 0.32821838 
0.52784066 0.83017071 0.68191586 
0.53854877 0.84124616 0.16694809 
0.85723175 0.37073844 0.56498919 
0.63925815 0.64847017 0.92532782 
0.64687911 0.36801698 0.93218936 
0.67341677 0.12537888 0.59078343 
0.69211869 0.91924582 0.93000005 
0.75259891 0.5285684 0.24450305 
0.80624341 0.92103114 0.56023766 
0.83235847 0.11197015 0.91613833 
0.56539664 0.50302179 0.30197542 
0.90856849 0.81931028 0.57619669 
0.85977909 0.50347604 0.39177166 
0.74978357 0.03690965 0.74931233 
0.64446636 0.50198085 0.10227589 
0.09006656 0.1835148 0.42761494 
0.14446695 0.49801909 0.60227635 
0.24978379 0.96309029 0.24931256 
0.59006634 0.81648514 0.92761472 
0.40856871 0.18068965 0.07619692 
0.35977891 0.49652389 0.89177204 
0.05821979 0.69657831 0.10270748 
0.45056774 0.69135104 0.38991988 
0.55821957 0.30342163 0.60270725 
0.95056752 0.30864889 0.88991965 
