System
1.0
3.68663692 0.0 0.0
0.0 3.68663692 0.0
0.0 0.0 3.68663692
Gd Ag
1 1
direct
0.0 0.0 0.0 
0.5 0.5 0.5 
