System
1.0
6.52916378 -0.03627547 0.0335161
-0.03757061 7.33058088 0.013019
0.02277738 0.01096354 9.46221828
Pr Be O
9 4 20
direct
0.06979895 0.80655323 0.17823721 
0.10257475 0.5088766 0.46879489 
0.3980273 0.50133476 0.96822468 
0.4256604 0.81321613 0.65822674 
0.57850527 0.31485381 0.33265409 
0.58940747 0.00497195 0.04349402 
0.90108745 0.01062934 0.52000503 
0.91375466 0.73668626 0.82693718 
0.9203152 0.27566313 0.8341617 
0.1913156 0.00481905 0.89475558 
0.32748182 0.00396773 0.38974622 
0.68572066 0.50277738 0.6123285 
0.82051038 0.50506878 0.10375155 
0.02297703 0.51309216 0.00257123 
0.1245974 -0.0080671 0.72644378 
0.171281 0.54077776 0.72623529 
0.21872962 0.19979575 0.42264038 
0.18229676 0.83265829 0.43220099 
0.30634273 0.8210312 0.94115409 
0.29181324 0.19455255 0.92459355 
0.30871346 0.53592804 0.2279427 
0.34659392 0.04002688 0.2243065 
0.47482988 0.52568037 0.52370383 
0.54256748 0.01797414 0.47062067 
0.6535393 0.51052301 0.78327832 
0.67967316 0.99522151 0.78210134 
0.71392413 0.70319808 0.05590917 
0.6719833 0.32910622 0.07179869 
0.82299206 0.32732591 0.56349041 
0.80776431 0.70170202 0.58136502 
0.8008769 0.03187347 0.27322029 
0.87646456 0.52806517 0.27078763 
0.97267986 0.01091644 0.98731872 
