System
1.0
12.91438007 -2e-08 -4.56592296
-6.45719005 11.18418099 -4.56592296
3e-08 5e-08 13.69776794
Yb Cd
12 72
direct
0.51213024 0.69727345 0.81051629 
0.88675716 0.70161395 0.18948371 
0.70161395 0.18948371 0.88675716 
0.48786976 0.29838605 0.1851432 
0.69727345 0.81051629 0.51213024 
0.81051629 0.51213024 0.69727345 
0.8148568 0.11324284 0.30272655 
0.18948371 0.88675716 0.70161395 
0.29838605 0.1851432 0.48786976 
0.11324284 0.30272655 0.8148568 
0.30272655 0.8148568 0.11324284 
0.1851432 0.48786976 0.29838605 
0.90747454 0.23933496 0.14541897 
0.31371807 0.31371807 0.31371807 
0.31350228 0.76624035 0.85308176 
0.0 0.40517526 0.40517526 
0.05906515 0.6580341 0.40787239 
0.0 0.0 0.13336223 
0.76205557 0.85458103 0.09391599 
0.45273807 0.68649772 0.53957948 
0.33186042 0.09252546 0.23794443 
0.3087421 0.8087421 0.5 
0.8637157 0.08473293 0.54436406 
1.0 1.0 0.35052085 
0.46042052 0.14691824 0.91315859 
0.23933496 0.14541897 0.90747454 
0.68628193 0.0 0.0 
0.08473293 0.54436406 0.8637157 
0.31935164 0.45563594 0.54036887 
0.14691824 0.91315859 0.46042052 
0.45963113 0.91526707 0.77898277 
0.59212761 0.25016171 0.65119276 
0.76066504 0.66813958 0.90608401 
0.5 0.6912579 0.1912579 
0.40103105 0.74983829 0.3419659 
0.09252546 0.23794443 0.33186042 
0.5 0.3087421 0.8087421 
0.85458103 0.09391599 0.76205557 
0.14541897 0.90747454 0.23933496 
1.0 0.68628193 0.0 
0.6912579 0.1912579 0.5 
0.09391599 0.76205557 0.85458103 
0.90608401 0.76066504 0.66813958 
0.40517526 0.40517526 1.0 
0.68649772 0.53957948 0.45273807 
0.45563594 0.54036887 0.31935164 
0.76624035 0.85308176 0.31350228 
0.68064836 0.22101723 0.1362843 
1.0 0.35052085 0.0 
0.64947915 0.64947915 0.64947915 
0.54726193 0.08684141 0.23375965 
0.54436406 0.8637157 0.08473293 
0.22101723 0.1362843 0.68064836 
0.08684141 0.23375965 0.54726193 
0.34880724 0.59896895 0.94093485 
0.53957948 0.45273807 0.68649772 
0.1912579 0.5 0.6912579 
0.66813958 0.90608401 0.76066504 
0.3419659 0.40103105 0.74983829 
0.40787239 0.05906515 0.6580341 
0.59482474 0.59482474 0.0 
0.91315859 0.46042052 0.14691824 
0.23794443 0.33186042 0.09252546 
0.86663777 0.86663777 0.86663777 
0.8087421 0.5 0.3087421 
0.54036887 0.31935164 0.45563594 
0.13336223 1.0 1.0 
0.94093485 0.34880724 0.59896895 
0.6580341 0.40787239 0.05906515 
0.74983829 0.3419659 0.40103105 
0.40517526 0.0 0.40517526 
1.0 0.59482474 0.59482474 
0.59896895 0.94093485 0.34880724 
0.77898277 0.45963113 0.91526707 
0.1362843 0.68064836 0.22101723 
0.35052085 0.0 0.0 
0.0 0.13336223 1.0 
0.85308176 0.31350228 0.76624035 
1.0 1.0 0.68628193 
0.91526707 0.77898277 0.45963113 
0.59482474 1.0 0.59482474 
0.65119276 0.59212761 0.25016171 
0.25016171 0.65119276 0.59212761 
0.23375965 0.54726193 0.08684141 
