System
1.0
0.0 0.0 -3.90942452
0.0 -6.33605568 -0.0
-6.46066229 0.0 0.0
Sn Pd
4 4
direct
0.75 0.30799237 0.09135064 
0.75 0.80799237 0.40864936 
0.25 0.69200763 0.90864936 
0.25 0.19200763 0.59135064 
0.75 0.48990782 0.68730597 
0.75 0.98990782 0.81269403 
0.25 0.51009218 0.31269403 
0.25 0.01009218 0.18730597 
