System
1.0
5.31737283 0.0 0.0
0.0 5.63924981 0.0
0.0 0.0 7.70282422
O Fe Ho
12 4 4
direct
0.6911157 0.30632156 0.43878168 
0.19111649 0.19367953 0.56121779 
0.80888383 0.8063209 0.06121805 
0.30888463 0.69367887 0.93878276 
0.30888463 0.69367887 0.56121779 
0.80888383 0.8063209 0.43878168 
0.19111649 0.19367953 0.93878276 
0.6911157 0.30632156 0.06121805 
0.1197241 0.45478602 0.24999987 
0.6197233 0.04521507 0.74999961 
0.88027623 0.54521441 0.74999961 
0.38027511 0.95478536 0.24999987 
0.0 0.49999934 0.49999974 
0.49999921 0.0 0.49999974 
0.49999921 0.0 0.0 
0.0 0.49999934 0.0 
0.0198561 0.93049974 0.74999961 
0.5198553 0.56950003 0.24999987 
0.48014502 0.4305004 0.74999961 
0.98014423 0.06950069 0.24999987 
