System
1.0
8.27848401 0.0 0.0
-4.13924201 7.16937781 0.0
0.0 0.0 16.31880478
Ce In Pd
12 10 24
direct
0.72301686 0.72301686 0.62215848 
0.27698314 0.0 0.62215848 
1.0 0.72301686 0.37784152 
0.0 0.27698314 0.62215848 
0.72301686 0.0 0.12215848 
0.72301686 0.0 0.37784152 
0.27698314 0.27698314 0.12215848 
0.0 0.27698314 0.87784152 
0.72301686 0.72301686 0.87784152 
1.0 0.72301686 0.12215848 
0.27698314 0.0 0.87784152 
0.27698314 0.27698314 0.37784152 
0.63169279 0.63169279 0.25 
0.63169279 0.0 0.75 
0.666667 0.333333 0.0 
0.0 0.36830721 0.25 
0.333333 0.666667 0.0 
0.36830721 0.36830721 0.75 
0.666667 0.333333 0.5 
0.36830721 0.0 0.25 
0.333333 0.666667 0.5 
1.0 0.63169279 0.75 
0.38340913 0.38340913 0.57100807 
0.666667 0.333333 0.33325825 
0.38340913 0.0 0.07100807 
0.38340913 0.0 0.42899193 
0.333333 0.666667 0.33325825 
1.0 0.61659087 0.92899193 
0.666667 0.333333 0.66674175 
0.61659087 0.0 0.57100807 
0.333333 0.666667 0.66674175 
0.333333 0.666667 0.16674175 
0.61659087 0.0 0.92899193 
0.333333 0.666667 0.83325825 
0.38340913 0.38340913 0.92899193 
0.666667 0.333333 0.83325825 
0.61659087 0.61659087 0.42899193 
1.0 0.61659087 0.57100807 
0.0 0.0 0.0 
0.61659087 0.61659087 0.07100807 
0.0 0.38340913 0.42899193 
0.0 0.38340913 0.07100807 
0.0 0.0 0.5 
0.666667 0.333333 0.16674175 
0.0 0.0 0.75 
0.0 0.0 0.25 
