System
1.0
9.18270869 -0.00928675 -0.00645024
4.91815185 7.75461178 -0.00645025
4.91815186 2.70144349 7.26885396
Hf Na O P
4 2 24 6
direct
0.14557938 0.14557938 0.14557938 
0.35442062 0.35442062 0.35442062 
0.64557938 0.64557938 0.64557938 
0.85442062 0.85442062 0.85442062 
0.0 0.0 0.0 
0.5 0.5 0.5 
0.41812923 0.56382668 0.78063959 
0.56382668 0.78063959 0.41812923 
0.78063959 0.41812923 0.56382668 
0.49436808 0.87732965 0.71315553 
0.71315553 0.49436808 0.87732965 
0.87732965 0.71315553 0.49436808 
0.62267035 0.00563192 0.78684447 
0.78684447 0.62267035 0.00563192 
0.00563192 0.78684447 0.62267035 
0.71936041 0.93617332 0.08187077 
0.93617332 0.08187077 0.71936041 
0.08187077 0.71936041 0.93617332 
0.91812923 0.28063959 0.06382668 
0.06382668 0.91812923 0.28063959 
0.28063959 0.06382668 0.91812923 
0.99436808 0.21315553 0.37732965 
0.21315553 0.37732965 0.99436808 
0.37732965 0.99436808 0.21315553 
0.12267035 0.28684447 0.50563192 
0.28684447 0.50563192 0.12267035 
0.50563192 0.12267035 0.28684447 
0.21936041 0.58187077 0.43617332 
0.43617332 0.21936041 0.58187077 
0.58187077 0.43617332 0.21936041 
0.45943986 0.04056014 0.75 
0.75 0.45943986 0.04056014 
0.04056014 0.75 0.45943986 
0.95943986 0.25 0.54056014 
0.25 0.54056014 0.95943986 
0.54056014 0.95943986 0.25 
