System
1.0
8.14595991 0.0 0.0
0.0 17.336088 0.0
0.0 0.0 17.45799567
Br Pd Tl
40 8 24
direct
0.57222066 0.1979668 0.47369205 
0.07222066 0.3020332 0.52630795 
0.42777934 0.6979668 0.02630795 
0.92777934 0.8020332 0.97369205 
0.42777934 0.8020332 0.52630795 
0.92777934 0.6979668 0.47369205 
0.57222066 0.3020332 0.97369205 
0.07222066 0.1979668 0.02630795 
0.29190625 0.05471555 0.53812831 
0.79190625 0.44528445 0.46187169 
0.70809375 0.55471555 0.96187169 
0.20809375 0.94528445 0.03812831 
0.70809375 0.94528445 0.46187169 
0.20809375 0.55471555 0.53812831 
0.29190625 0.44528445 0.03812831 
0.79190625 0.05471555 0.96187169 
0.31633842 0.23055341 0.3163088 
0.81633842 0.26944659 0.6836912 
0.68366158 0.73055341 0.1836912 
0.18366158 0.76944659 0.8163088 
0.68366158 0.76944659 0.6836912 
0.18366158 0.73055341 0.3163088 
0.31633842 0.26944659 0.8163088 
0.81633842 0.23055341 0.1836912 
0.03854409 0.09495999 0.38283251 
0.53854409 0.40504001 0.61716749 
0.96145591 0.59495999 0.11716749 
0.46145591 0.90504001 0.88283251 
0.96145591 0.90504001 0.61716749 
0.46145591 0.59495999 0.38283251 
0.03854409 0.40504001 0.88283251 
0.53854409 0.09495999 0.11716749 
0.3686299 0.93199736 0.26258138 
0.8686299 0.56800264 0.73741862 
0.6313701 0.43199736 0.23741862 
0.1313701 0.06800264 0.76258138 
0.6313701 0.06800264 0.73741862 
0.1313701 0.43199736 0.26258138 
0.3686299 0.56800264 0.76258138 
0.8686299 0.93199736 0.23741862 
0.30861264 0.14349769 0.42756479 
0.80861264 0.35650231 0.57243521 
0.69138736 0.64349769 0.07243521 
0.19138736 0.85650231 0.92756479 
0.69138736 0.85650231 0.57243521 
0.19138736 0.64349769 0.42756479 
0.30861264 0.35650231 0.92756479 
0.80861264 0.14349769 0.07243521 
0.617316 0.06526702 0.30367299 
0.117316 0.43473298 0.69632701 
0.382684 0.56526702 0.19632701 
0.882684 0.93473298 0.80367299 
0.382684 0.93473298 0.69632701 
0.882684 0.56526702 0.30367299 
0.617316 0.43473298 0.80367299 
0.117316 0.06526702 0.19632701 
0.41913334 0.20028219 0.64705266 
0.91913334 0.29971781 0.35294734 
0.58086666 0.70028219 0.85294734 
0.08086666 0.79971781 0.14705266 
0.58086666 0.79971781 0.35294734 
0.08086666 0.70028219 0.64705266 
0.41913334 0.29971781 0.14705266 
0.91913334 0.20028219 0.85294734 
0.89526128 0.0940194 0.58724443 
0.39526128 0.4059806 0.41275557 
0.10473872 0.5940194 0.91275557 
0.60473872 0.9059806 0.08724443 
0.10473872 0.9059806 0.41275557 
0.60473872 0.5940194 0.58724443 
0.89526128 0.4059806 0.08724443 
0.39526128 0.0940194 0.91275557 
