System
1.0
5.21371853 3.6e-07 0.0
-2.60685958 4.51521252 0.0
0.0 0.0 8.81856424
Li O S K
2 8 2 2
direct
0.33333333 0.66666667 0.80266834 
0.66666667 0.33333333 0.30266834 
0.60069535 0.6603715 0.24727401 
0.6603715 0.05967615 0.74727401 
0.33333333 0.66666667 0.02326031 
0.05967615 0.39930465 0.24727401 
0.66666667 0.33333333 0.52326031 
0.3396285 0.94032385 0.24727401 
0.39930465 0.3396285 0.74727401 
0.94032385 0.60069535 0.74727401 
0.33333333 0.66666667 0.19233885 
0.66666667 0.33333333 0.69233885 
0.0 0.0 0.98991048 
0.0 0.0 0.48991048 
