System
1.0
4.76835378 0.0 -1.35344464
0.06943088 5.20753599 0.24461362
-0.1047296 0.54521498 8.70749858
O Sn Ta
14 2 4
direct
0.68585023 0.16278607 0.551989 
0.13386123 0.33721393 0.448011 
0.31414977 0.83721393 0.448011 
0.86613877 0.66278607 0.551989 
0.31333406 0.01015996 0.7153153 
0.59801876 0.48984004 0.2846847 
0.38073531 0.25 0.0 
0.61926469 0.75 0.0 
0.93070982 0.52471035 0.83802428 
0.09268554 0.97528965 0.16197572 
0.06929018 0.47528965 0.16197572 
0.90731446 0.02471035 0.83802428 
0.40198124 0.51015996 0.7153153 
0.68666594 0.98984004 0.2846847 
0.22717724 0.75 0.0 
0.77282276 0.25 0.0 
0.39079715 0.19678958 0.3257529 
0.06504425 0.30321042 0.6742471 
0.93495575 0.69678958 0.3257529 
0.60920285 0.80321042 0.6742471 
