System
1.0
5.88519419 0.0 0.0
-2.9425971 6.4193646 0.0
0.0 0.0 8.22533923
O Si Co Cs
8 2 2 4
direct
0.35358594 0.70717189 0.29300043 
0.64641406 0.29282811 0.79300043 
0.17398588 0.34797177 0.43746678 
0.82601412 0.65202823 0.93746678 
0.88915628 0.322104 0.0802145 
0.43294772 0.322104 0.0802145 
0.11084372 0.677896 0.5802145 
0.56705228 0.677896 0.5802145 
0.69868133 0.39736265 0.97902157 
0.30131867 0.60263735 0.47902157 
0.20709957 0.41419914 0.19359704 
0.79290043 0.58580086 0.69359704 
0.07742521 0.15485042 0.77374857 
0.92257479 0.84514958 0.27374857 
0.40645776 0.81291552 0.9162366 
0.59354224 0.18708448 0.4162366 
