System
1.0
9.14581509 0.0 0.0
0.0 6.72120843 0.0
0.0 0.0 19.9783145
Ca H N Cl O
8 32 8 8 40
direct
0.05414827 0.45255009 0.34424724 
0.55414827 0.04744991 0.65575276 
0.94585173 0.95255009 0.15575276 
0.44585173 0.54744991 0.84424724 
0.94585173 0.54744991 0.65575276 
0.44585173 0.95255009 0.34424724 
0.05414827 0.04744991 0.84424724 
0.55414827 0.45255009 0.15575276 
0.78862494 0.25893337 0.40190087 
0.28862494 0.24106663 0.59809913 
0.21137506 0.75893337 0.09809913 
0.71137506 0.74106663 0.90190087 
0.21137506 0.74106663 0.59809913 
0.71137506 0.75893337 0.40190087 
0.78862494 0.24106663 0.90190087 
0.28862494 0.25893337 0.09809913 
0.91705113 0.10456886 0.41165193 
0.41705113 0.39543114 0.58834807 
0.08294887 0.60456886 0.08834807 
0.58294887 0.89543114 0.91165193 
0.08294887 0.89543114 0.58834807 
0.58294887 0.60456886 0.41165193 
0.91705113 0.39543114 0.91165193 
0.41705113 0.10456886 0.08834807 
0.29602173 0.34848527 0.44519616 
0.79602173 0.15151473 0.55480384 
0.70397827 0.84848527 0.05480384 
0.20397827 0.65151473 0.94519616 
0.70397827 0.65151473 0.55480384 
0.20397827 0.84848527 0.44519616 
0.29602173 0.15151473 0.94519616 
0.79602173 0.34848527 0.05480384 
0.14528915 0.36794215 0.48365771 
0.64528915 0.13205785 0.51634229 
0.85471085 0.86794215 0.01634229 
0.35471085 0.63205785 0.98365771 
0.85471085 0.63205785 0.51634229 
0.35471085 0.86794215 0.48365771 
0.14528915 0.13205785 0.98365771 
0.64528915 0.36794215 0.01634229 
0.15242217 0.09801166 0.26341573 
0.65242217 0.40198834 0.73658427 
0.84757783 0.59801166 0.23658427 
0.34757783 0.90198834 0.76341573 
0.84757783 0.90198834 0.73658427 
0.34757783 0.59801166 0.26341573 
0.15242217 0.40198834 0.76341573 
0.65242217 0.09801166 0.23658427 
0.95420851 0.77371035 0.41850454 
0.45420851 0.72628965 0.58149546 
0.04579149 0.27371035 0.08149546 
0.54579149 0.22628965 0.91850454 
0.04579149 0.22628965 0.58149546 
0.54579149 0.27371035 0.41850454 
0.95420851 0.72628965 0.91850454 
0.45420851 0.77371035 0.08149546 
0.02875548 0.18021983 0.25283855 
0.52875548 0.31978017 0.74716145 
0.97124452 0.68021983 0.24716145 
0.47124452 0.81978017 0.75283855 
0.97124452 0.81978017 0.74716145 
0.47124452 0.68021983 0.25283855 
0.02875548 0.31978017 0.75283855 
0.52875548 0.18021983 0.24716145 
0.20200457 0.97384822 0.22286753 
0.70200457 0.52615178 0.77713247 
0.79799543 0.47384822 0.27713247 
0.29799543 0.02615178 0.72286753 
0.79799543 0.02615178 0.77713247 
0.29799543 0.47384822 0.22286753 
0.20200457 0.52615178 0.72286753 
0.70200457 0.97384822 0.27713247 
0.22174841 0.14714233 0.31630373 
0.72174841 0.35285767 0.68369627 
0.77825159 0.64714233 0.18369627 
0.27825159 0.85285767 0.81630373 
0.77825159 0.85285767 0.68369627 
0.27825159 0.64714233 0.31630373 
0.22174841 0.35285767 0.81630373 
0.72174841 0.14714233 0.18369627 
0.89566255 0.24538033 0.40277646 
0.39566255 0.25461967 0.59722354 
0.10433745 0.74538033 0.09722354 
0.60433745 0.75461967 0.90277646 
0.10433745 0.75461967 0.59722354 
0.60433745 0.74538033 0.40277646 
0.89566255 0.25461967 0.90277646 
0.39566255 0.24538033 0.09722354 
0.19616208 0.40323213 0.44182152 
0.69616208 0.09676787 0.55817848 
0.80383792 0.90323213 0.05817848 
0.30383792 0.59676787 0.94182152 
0.80383792 0.59676787 0.55817848 
0.30383792 0.90323213 0.44182152 
0.19616208 0.09676787 0.94182152 
0.69616208 0.40323213 0.05817848 
