System
1.0
6.3909905 0.01925108 1.43495868
-1.28408652 6.29591702 1.27217949
0.05826202 -0.02906516 13.4933555
Li O P Mo
4 28 8 4
direct
0.41124273 0.02446761 0.34599187 
0.12934453 0.2427019 0.84603248 
0.87065537 0.75729776 0.15396725 
0.58875753 0.97553242 0.65400858 
0.30798646 0.59644043 0.47511931 
0.72584764 0.05355778 0.38293951 
0.80364597 0.19603032 0.87492 
0.54653241 0.10119628 0.18618876 
0.06342613 0.89117284 0.88299093 
0.27415134 0.94644255 0.61706085 
0.19635364 0.80396913 0.12508038 
0.45346753 0.89880421 0.81381164 
0.09470794 0.45759065 0.35738897 
0.18010308 0.58085709 0.80673927 
0.23665974 0.61793888 0.9768664 
0.93657373 0.10882678 0.117009 
0.57162175 0.78312683 0.02488502 
0.31510623 0.45207855 0.14257848 
0.0948145 0.21348701 0.52313036 
0.5709345 0.67864997 0.62507003 
0.88754529 0.98690498 0.6932579 
0.21257147 0.26730412 0.68620636 
0.90529248 0.5424096 0.64261073 
0.11245413 0.01309661 0.30674227 
0.42906507 0.3213496 0.37493032 
0.90518454 0.78651387 0.47686989 
0.68489393 0.54792127 0.85742128 
0.42837797 0.21687292 0.975115 
0.69201403 0.40356003 0.52488071 
0.76334041 0.38206078 0.02313377 
0.81989711 0.4191432 0.19326089 
0.78742925 0.73269615 0.31379354 
0.76698533 0.24728662 0.13483874 
0.66142109 0.33233774 0.92793888 
0.76023622 0.58943324 0.57207505 
0.11785931 0.09820833 0.6348578 
0.23301479 0.75271343 0.86516133 
0.33857895 0.66766186 0.07206109 
0.88213998 0.90179256 0.3651422 
0.2397636 0.4105668 0.42792495 
0.23425003 0.60479655 0.63820739 
0.74295322 0.87247043 0.86180229 
0.25704678 0.12752925 0.13819785 
0.76574964 0.39520323 0.36179291 
