System
1.0
-3.23145482 3.47309109 3.35197842
-0.00044846 3.47362955 -0.00750502
0.03089997 -0.00195265 -6.71726622
Li Ag F
1 1 4
direct
0.49687335 0.00593518 0.50086971 
0.50027498 0.50017731 0.0029171 
0.11691839 0.88405783 0.32590531 
0.47033167 0.02960946 0.18762271 
0.52534362 0.97569141 0.81547137 
0.882128 0.11858281 0.6807478 
