System
1.0
5.21765039 0.11273192 -0.16818558
-0.23126943 5.63267835 1.28736388
-2.6954118 0.28205339 6.60996531
Nb O F
4 6 4
direct
0.12257542 0.32701983 0.19183488 
0.39624118 0.19339207 0.82134328 
0.60375882 0.80660793 0.17865672 
0.87742458 0.67298017 0.80816512 
0.15559279 0.35439619 0.90188052 
0.25443001 0.85065885 0.90606915 
0.58125018 0.4831364 0.72710932 
0.41874982 0.5168636 0.27289068 
0.74556999 0.14934115 0.09393085 
0.84440721 0.64560381 0.09811948 
0.88794062 0.75437425 0.50216782 
0.36155538 0.99739041 0.28366747 
0.63844462 0.00260959 0.71633253 
0.11205938 0.24562575 0.49783218 
