System
1.0
7.7812716 0.0 -0.62213178
0.0 7.64520068 0.0
0.03433552 0.0 10.27863568
O P V
32 8 6
direct
0.06368261 0.13552768 0.89638697 
0.05046763 0.15825238 0.4115484 
0.10354017 0.20323829 0.6548604 
0.09148672 0.18087423 0.14202858 
0.17898931 0.54620154 0.71641215 
0.15375948 0.54835255 0.21449286 
0.24146178 0.36522348 0.96448534 
0.21197117 0.86933159 0.75169707 
0.28802958 0.3693325 0.49830221 
0.25853897 0.86522388 0.28551491 
0.32101015 0.04620113 0.53358803 
0.39646058 0.70323869 0.59513986 
0.34624115 0.04835345 0.0355067 
0.44953311 0.65825279 0.83845186 
0.40851263 0.68087464 0.1079709 
0.43631686 0.63552678 0.35361321 
0.59211999 0.3621246 0.65259805 
0.59687704 0.33201766 0.8911707 
0.56129741 0.36612452 0.14269946 
0.65588578 0.96100466 0.97705512 
0.59706676 0.31422624 0.37953467 
0.63178041 0.92384588 0.45386523 
0.73400952 0.61485162 0.500672 
0.93870185 0.86612362 0.10730116 
0.73498968 0.63283541 0.01784805 
0.76501086 0.13283501 0.23215166 
0.86821897 0.42384678 0.79613413 
0.90293261 0.81422664 0.87046567 
0.84411488 0.46100425 0.2729453 
0.90312362 0.83201807 0.35882874 
0.90787939 0.8621237 0.59740229 
0.76599114 0.11485122 0.74932842 
0.19055188 0.19970277 0.51800233 
0.20215638 0.17030724 0.02212622 
0.30944758 0.69970187 0.73199785 
0.29784425 0.67030764 0.22787432 
0.70165281 0.3001903 0.77394296 
0.70903928 0.32864681 0.24997788 
0.79096009 0.82864722 1.00002245 
0.79834657 0.8001894 0.47605639 
0.09044925 0.35814824 0.80415797 
0.40955149 0.85814864 0.44584229 
0.52293426 0.46538083 0.49135536 
0.51942103 0.52207899 1.71e-06 
0.9770664 0.96538124 0.75864505 
0.98057823 0.0220799 0.24999891 
