System
1.0
9.46888024 0.01664538 -0.01410102
0.71749155 9.4416717 -0.01410102
-0.03049497 -0.02831539 18.78598713
Al P O
12 12 48
direct
0.14966695 0.07197875 0.83407644 
0.92802125 0.85033305 0.66592356 
0.85033305 0.92802125 0.16592356 
0.07197875 0.14966695 0.33407644 
0.89103635 0.34315173 0.06162757 
0.65684827 0.10896365 0.43837243 
0.10896365 0.65684827 0.93837243 
0.34315173 0.89103635 0.56162757 
0.67550892 0.8663167 0.9497077 
0.1336833 0.32449108 0.5502923 
0.32449108 0.1336833 0.0502923 
0.8663167 0.67550892 0.4497077 
0.13218464 0.32605701 0.94594735 
0.67394299 0.86781536 0.55405265 
0.86781536 0.67394299 0.05405265 
0.32605701 0.13218464 0.44594735 
0.6587932 0.11914097 0.06267611 
0.88085903 0.3412068 0.43732389 
0.3412068 0.88085903 0.93732389 
0.11914097 0.6587932 0.56267611 
0.91530082 0.85149893 0.83450577 
0.14850107 0.08469918 0.66549423 
0.08469918 0.14850107 0.16549423 
0.85149893 0.91530082 0.33450577 
0.76922815 0.87298776 0.86985332 
0.12701224 0.23077185 0.63014668 
0.23077185 0.12701224 0.13014668 
0.87298776 0.76922815 0.36985332 
0.68805686 0.02623515 0.99598222 
0.97376485 0.31194314 0.50401778 
0.31194314 0.97376485 0.00401778 
0.02623515 0.68805686 0.49598222 
0.73682555 0.25425069 0.05510842 
0.74574931 0.26317445 0.44489158 
0.26317445 0.74574931 0.94489158 
0.25425069 0.73682555 0.55510842 
0.98641821 0.32095244 0.98187054 
0.67904756 0.01358179 0.51812946 
0.01358179 0.67904756 0.01812946 
0.32095244 0.98641821 0.48187054 
0.13520679 0.23330617 0.87899701 
0.76669383 0.86479321 0.62100299 
0.86479321 0.76669383 0.12100299 
0.23330617 0.13520679 0.37899701 
0.99220809 0.9879641 0.84435789 
0.0120359 0.00779191 0.65564211 
0.00779191 0.0120359 0.15564211 
0.9879641 0.99220809 0.34435789 
0.00280882 0.72462345 0.86792622 
0.27537655 0.99719118 0.63207378 
0.99719118 0.27537655 0.13207378 
0.72462345 0.00280882 0.36792622 
0.49986235 0.83797439 0.93028922 
0.16202561 0.50013765 0.56971078 
0.50013765 0.16202561 0.06971078 
0.83797439 0.49986235 0.43028922 
0.18049108 0.10567235 0.74462907 
0.89432765 0.81950892 0.75537093 
0.81950892 0.89432765 0.25537093 
0.10567235 0.18049108 0.24462907 
0.84365415 0.52235533 0.07679819 
0.47764467 0.15634585 0.42320181 
0.15634585 0.47764467 0.92320181 
0.52235533 0.84365415 0.57679819 
0.70939767 0.03760962 0.13022326 
0.96239038 0.29060233 0.36977674 
0.29060233 0.96239038 0.86977674 
0.03760962 0.70939767 0.63022326 
0.74865432 0.72616949 0.00225247 
0.27383051 0.25134568 0.49774753 
0.25134568 0.27383051 0.99774753 
0.72616949 0.74865432 0.50225247 
