System
1.0
4.86838164 0.0 0.0
-2.43419082 4.21614257 0.0
0.0 0.0 7.62548557
Sm Ag Pb
2 2 2
direct
0.0 0.0 0.00149857 
0.0 0.0 0.50149857 
0.333333 0.666667 0.80941112 
0.666667 0.333333 0.30941112 
0.666667 0.333333 0.72209031 
0.333333 0.666667 0.22209031 
