System
1.0
9.39797498 0.0 -2.75834676
0.0 12.73871307 0.0
-0.04921467 0.0 6.09537387
Cu H S N O
2 40 4 4 28
direct
0.5 0.5 0.0 
0.0 0.0 0.0 
0.55595934 0.15936292 0.22571809 
0.94404066 0.65936292 0.77428191 
0.44404066 0.84063708 0.77428191 
0.05595934 0.34063708 0.22571809 
0.71501483 0.19637057 0.41758407 
0.78498517 0.69637057 0.58241593 
0.28498517 0.80362943 0.58241593 
0.21501483 0.30362943 0.41758407 
0.59061225 0.1315281 0.50857159 
0.90938775 0.6315281 0.49142841 
0.40938775 0.8684719 0.49142841 
0.09061225 0.3684719 0.50857159 
0.68063291 0.06746 0.3521905 
0.81936709 0.56746 0.6478095 
0.31936709 0.93254 0.6478095 
0.18063291 0.43254 0.3521905 
0.69027725 0.41119113 0.32586725 
0.80972275 0.91119113 0.67413275 
0.30972275 0.58880887 0.67413275 
0.19027725 0.08880887 0.32586725 
0.72497202 0.37911032 0.08858046 
0.77502798 0.87911032 0.91141954 
0.27502798 0.62088968 0.91141954 
0.22497202 0.12088968 0.08858046 
0.2200131 0.39854865 0.94667571 
0.2799869 0.89854865 0.05332429 
0.7799869 0.60145135 0.05332429 
0.7200131 0.10145135 0.94667571 
0.34141555 0.31318521 0.01456508 
0.15858445 0.81318521 0.98543492 
0.65858445 0.68681479 0.98543492 
0.84141555 0.18681479 0.01456508 
0.38413236 0.11459273 0.32626768 
0.11586764 0.61459273 0.67373232 
0.61586764 0.88540727 0.67373232 
0.88413236 0.38540727 0.32626768 
0.53507946 0.63237499 0.28585458 
0.96492054 0.13237499 0.71414542 
0.46492054 0.36762501 0.71414542 
0.03507946 0.86762501 0.28585458 
0.89140859 0.35799338 0.74278307 
0.60859141 0.85799338 0.25721693 
0.10859141 0.64200662 0.25721693 
0.39140859 0.14200662 0.74278307 
0.63581395 0.13981674 0.37446975 
0.86418605 0.63981674 0.62553025 
0.36418605 0.86018326 0.62553025 
0.13581395 0.36018326 0.37446975 
0.88568533 0.26127494 0.59955429 
0.61431467 0.76127494 0.40044571 
0.11431467 0.73872506 0.40044571 
0.38568533 0.23872506 0.59955429 
0.03083135 0.41176338 0.77432435 
0.46916865 0.91176338 0.22567565 
0.96916865 0.58823662 0.22567565 
0.53083135 0.08823662 0.77432435 
0.77185476 0.42863114 0.62599896 
0.72814524 0.92863114 0.37400104 
0.22814524 0.57136886 0.37400104 
0.27185476 0.07136886 0.62599896 
0.8760327 0.32517655 0.97238847 
0.6239673 0.82517655 0.02761153 
0.1239673 0.67482345 0.02761153 
0.3760327 0.17482345 0.97238847 
0.64684434 0.39006282 0.16080279 
0.85315566 0.89006282 0.83919721 
0.35315566 0.60993718 0.83919721 
0.14684434 0.10993718 0.16080279 
0.31850132 0.38664351 0.04408521 
0.18149868 0.88664351 0.95591479 
0.68149868 0.61335649 0.95591479 
0.81850132 0.11335649 0.04408521 
0.511388 0.55632182 0.27740259 
0.988612 0.05632182 0.72259741 
0.488612 0.44367818 0.72259741 
0.011388 0.94367818 0.27740259 
