System
1.0
4.38382686 -0.03558956 0.6975932
0.55673414 6.72435561 2.65866172
0.03290386 0.02610629 9.28697506
Te Pd I
2 2 4
direct
0.16202447 0.50486274 0.14978648 
0.83797553 0.49513726 0.85021352 
0.26396497 0.25149609 0.00400551 
0.73603503 0.74850391 0.99599449 
0.35666561 0.03333173 0.81151128 
0.19936268 0.70551832 0.57203488 
0.64333439 0.96666827 0.18848872 
0.80063732 0.29448168 0.42796512 
