System
1.0
-5.53494742 -5.53494742 0.0
-5.53494742 0.0 -5.53494742
0.0 -5.53494742 -5.53494742
Sc Zn Se
4 2 8
direct
0.0 0.0 0.5 
0.0 0.5 0.0 
0.5 0.0 0.0 
0.0 0.0 0.0 
0.375 0.375 0.375 
0.625 0.625 0.625 
0.24528257 0.24528257 0.76415229 
0.24528257 0.76415229 0.24528257 
0.76415229 0.24528257 0.24528257 
0.24528257 0.24528257 0.24528257 
0.75471743 0.75471743 0.23584771 
0.75471743 0.23584771 0.75471743 
0.23584771 0.75471743 0.75471743 
0.75471743 0.75471743 0.75471743 
