System
1.0
8.26384097 0.07271067 -2.38741119
1.21680454 8.17423866 2.38738011
-0.02696599 0.03097637 6.40308538
Li O P V
6 24 6 4
direct
0.98245382 0.98245462 0.74999731 
0.71217664 0.7121755 0.74999536 
0.5 0.5 0.5 
0.28782436 0.2878235 0.25000564 
0.01754618 0.01754638 0.25000269 
0.5 0.5 0.0 
0.29174224 0.5428601 0.1997524 
0.15414332 0.84333477 0.60142197 
0.39731764 0.95301082 0.82171856 
0.33539002 0.99287705 0.40203243 
0.15665819 0.84585454 0.10141087 
0.04698518 0.60268751 0.32172159 
0.45713977 0.70824818 0.69976941 
0.26659358 0.46693563 0.76605892 
0.00712296 0.66461075 0.9020391 
0.26261854 0.17537505 0.96758998 
0.17535289 0.26262564 0.53239805 
0.53305652 0.73341683 0.26604979 
0.46694348 0.26658417 0.73394921 
0.82464711 0.73737336 0.46760295 
0.99287704 0.33538825 0.0979599 
0.70825776 0.4571399 0.8002466 
0.73340642 0.53306537 0.23394208 
0.54286023 0.29175082 0.30023159 
0.95301482 0.39731249 0.67827841 
0.84334181 0.15414646 0.89858913 
0.66460998 0.00712295 0.59796657 
0.60268236 0.04698918 0.17828244 
0.84585668 0.15666623 0.39857903 
0.73738146 0.82462395 0.03241002 
0.33814084 0.86573214 0.63178145 
0.13427367 0.66186416 0.1317863 
0.28973041 0.2897235 0.74998669 
0.71026959 0.7102765 0.25001431 
0.86572633 0.33813584 0.8682127 
0.66185916 0.13426686 0.36821855 
0.05626445 0.62126345 0.63595791 
0.37870504 0.94372953 0.13593438 
0.62129496 0.05627147 0.86406562 
0.94373555 0.37873555 0.36404109 
