System
1.0
8.19493732 0.0 -3.44622704
-1.44924541 8.0657726 -3.44622704
-0.00097056 -0.00116049 11.46436069
Cu La
36 9
direct
0.24593858 0.24593858 0.0 
0.24593858 0.75406142 0.0 
0.75406142 0.24593858 0.0 
0.75406142 0.75406142 0.0 
0.5529557 0.20904689 0.41809378 
0.79095311 0.4470443 0.58190622 
0.79095311 0.13486191 0.58190622 
0.86513809 0.20904689 0.41809378 
0.15124141 0.79419074 0.58838148 
0.20580926 0.84875859 0.41161852 
0.20580926 0.56285993 0.41161852 
0.43714007 0.79419074 0.58838148 
0.9229695 0.66878535 0.3375707 
0.33121465 0.0770305 0.6624293 
0.33121465 0.5853988 0.6624293 
0.4146012 0.66878535 0.3375707 
0.69780791 0.54144535 0.08289071 
0.45855465 0.30219209 0.91710929 
0.45855465 0.61491721 0.91710929 
0.38508279 0.54144535 0.08289071 
0.36536382 0.07926145 0.1585229 
0.92073855 0.63463618 0.8414771 
0.92073855 0.20684092 0.8414771 
0.79315908 0.07926145 0.1585229 
0.00438557 0.50438557 0.5 
0.00438557 0.99561443 0.5 
0.49561443 0.50438557 0.5 
0.49561443 0.99561443 0.5 
0.2822684 0.3549014 0.24217977 
0.11272164 0.7177316 0.75782023 
0.6450986 0.04008863 0.75782023 
0.11272164 0.04008863 0.75782023 
0.6450986 0.7177316 0.75782023 
0.95991137 0.88727836 0.24217977 
0.95991137 0.3549014 0.24217977 
0.2822684 0.88727836 0.24217977 
0.0 0.0 0.0 
0.20675563 0.20675563 0.41351126 
0.79324437 0.79324437 0.58648874 
0.05182042 0.55182042 0.10364084 
0.44817958 0.94817958 0.89635916 
0.61841361 0.37413127 0.74826255 
0.62586873 0.38158639 0.25173745 
0.62586873 0.87015106 0.25173745 
0.12984894 0.37413127 0.74826255 
