System
1.0
7.29630984 -0.00220573 -0.00155968
3.64624521 6.31548157 0.0
3.64624521 2.10516086 5.95429272
Cu P Sn
4 10 1
direct
-0.00023719 1.00007906 1.00007906 
0.38201265 0.37581802 0.37581802 
0.38201265 0.86635131 0.37581802 
0.38201265 0.37581802 0.86635131 
0.50177724 0.50545096 0.9963859 
0.50177724 0.9963859 0.50545096 
0.38040132 0.87319956 0.87319956 
0.86963277 0.38053536 0.87491594 
0.0019807 0.50482758 0.50482758 
0.50177724 0.9963859 0.9963859 
0.86963277 0.87491594 0.38053536 
0.86963277 0.87491594 0.87491594 
0.0019807 0.50482758 0.98836414 
0.0019807 0.98836414 0.50482758 
0.71952578 0.42682474 0.42682474 
