System
1.0
6.96947297 -0.02462955 0.1496435
-0.02504015 6.82431074 0.38645286
0.42666458 1.26960137 19.93319076
Sm Al Si N O
12 3 15 21 21
direct
0.37561703 0.29702178 0.27480373 
0.39047788 0.36051858 0.57897945 
0.44041508 0.62637174 0.11101818 
0.36933574 0.7739273 0.39024522 
0.39194832 0.23865382 0.93468314 
0.37061213 0.66412806 0.74043619 
0.59820593 0.12541347 0.08525364 
0.64363848 0.19064207 0.43279438 
0.6137801 0.24774856 0.75480095 
0.68325623 0.81641554 0.59253401 
0.65701686 0.79178405 0.24726008 
0.59766567 0.71116691 0.91131673 
-0.03020128 0.96279965 0.32869134 
0.79043051 0.33893883 0.61120765 
0.86979309 0.39486616 0.98866971 
-0.07143714 0.00780727 0.94899322 
0.03426392 0.52008436 0.17047692 
0.029928 0.93234361 0.65597924 
0.00551211 0.41125114 0.82622878 
0.90449361 0.72856418 0.02593165 
0.85124327 0.33751768 0.29700318 
0.82644684 0.55804839 0.37953585 
0.82981329 0.73072589 0.73505549 
0.12068173 0.13275576 0.10458872 
0.1686924 0.12401438 0.44755917 
0.20681514 0.87238505 0.21012646 
0.15962923 0.12097073 0.73551301 
0.24672984 0.90356752 0.54027009 
0.19827823 0.83550565 0.86431133 
0.06338768 0.51664506 0.50448191 
0.58983166 0.56102569 0.35392811 
0.63695115 0.49678147 0.66124999 
0.21068877 0.61761535 0.21049116 
0.2591258 0.42183954 0.8385665 
0.24913399 0.6746075 0.51041009 
0.29054864 0.59258882 0.87663736 
0.66686652 0.157629 0.30576825 
0.82991742 0.52550706 0.4725989 
0.6879898 0.95970466 0.3439963 
0.67899902 0.00811103 0.96934689 
0.63010081 0.46776017 0.18397487 
0.81513201 0.4670594 0.21487579 
0.66316857 0.83231535 0.02557048 
0.77717533 0.07220334 0.65790291 
0.67195543 0.60176439 0.79860627 
0.68102586 0.43590518 0.52172444 
0.75465853 0.44962604 0.84923362 
0.67857139 0.9445758 0.71475133 
0.44058755 0.91730869 0.16368943 
0.4706383 0.03045395 0.53652871 
0.28678143 0.9684552 0.79147132 
0.61000743 0.41759379 -0.00546936 
0.29498731 0.16324368 0.0438276 
0.29571393 0.93020726 0.28415793 
0.17009157 0.3417164 0.14156329 
0.34798946 0.13059442 0.38925521 
0.26094663 0.82386775 0.63662883 
0.19159063 0.35788277 0.46446626 
0.30989884 0.29573481 0.69937219 
0.31032005 0.91429997 0.92705005 
0.00534898 0.94662321 0.56975583 
0.96646932 0.89855495 0.23923529 
0.96102983 0.88736248 0.87949206 
0.9635386 0.08278306 0.41407924 
0.92004759 0.22222894 0.06325812 
0.97897612 0.23314563 0.77533532 
-0.02101018 0.67330317 0.10301316 
0.01768929 0.71148985 0.37011808 
0.02866904 0.62905729 0.77307943 
0.05459811 0.21900109 0.29057228 
0.03013455 0.39984496 0.58337297 
-0.00335497 0.2460437 0.92776404 
