System
1.0
10.64344898 0.0 0.0
0.0 11.43392444 -2.27477496
0.0 0.02130405 11.65799251
Na Dy Si O
12 4 24 60
direct
0.24954426 0.07220905 0.92779095 
0.0 0.76183562 0.76183562 
0.25 0.02702718 0.47297282 
0.75 0.97297282 0.52702718 
0.25045574 0.57220905 0.42779095 
0.25 0.52702718 0.97297282 
0.5 0.26183562 0.26183562 
0.75 0.47297282 0.02702718 
0.0 0.23816438 0.23816438 
0.74954426 0.42779095 0.57220905 
0.75045574 0.92779095 0.07220905 
0.5 0.73816438 0.73816438 
0.75 0.16007048 0.33992952 
0.25 0.33992952 0.16007048 
0.75 0.66007048 0.83992952 
0.25 0.83992952 0.66007048 
0.29968513 0.52775182 0.69180973 
0.20031487 0.80819027 0.97224818 
0.97988151 0.74178039 0.47170031 
0.97988151 0.52829969 0.25821961 
0.70031487 0.69180973 0.52775182 
0.46599738 0.79654325 0.41644516 
0.52011849 0.24178039 0.97170031 
0.70031487 0.47224818 0.30819027 
0.46599738 0.58355484 0.20345675 
0.02011849 0.47170031 0.74178039 
0.53400262 0.41644516 0.79654325 
0.02011849 0.25821961 0.52829969 
0.47988151 0.97170031 0.24178039 
0.20031487 0.02775182 0.19180973 
0.03400262 0.08355484 0.70345675 
0.29968513 0.30819027 0.47224818 
0.53400262 0.20345675 0.58355484 
0.96599738 0.70345675 0.08355484 
0.96599738 0.91644516 0.29654325 
0.03400262 0.29654325 0.91644516 
0.79968513 0.97224818 0.80819027 
0.79968513 0.19180973 0.02775182 
0.52011849 0.02829969 0.75821961 
0.47988151 0.75821961 0.02829969 
0.42417917 0.25089384 0.07806011 
0.99178956 0.61050733 0.38949267 
0.01360615 0.83821086 0.39064139 
0.31847034 0.65258985 0.65602468 
0.68152966 0.65602468 0.65258985 
0.16853455 0.51531132 0.76528717 
0.6577178 0.48936537 0.8410751 
0.92417917 0.57806011 0.75089384 
0.92417917 0.24910616 0.42193989 
0.81847034 0.15602468 0.15258985 
0.41190029 0.50030412 0.78049745 
0.20235153 0.9283764 0.0716236 
0.57582083 0.07806011 0.25089384 
0.51360615 0.66178914 0.10935861 
0.98639385 0.16178914 0.60935861 
0.48639385 0.33821086 0.89064139 
0.49178956 0.88949267 0.11050733 
0.43669882 0.66749901 0.33250099 
0.1577178 0.3410751 0.98936538 
0.33146545 0.73471283 0.98468868 
0.58809971 0.49969588 0.21950255 
0.58809971 0.78049745 0.50030412 
0.16853455 0.23471283 0.48468868 
0.42417917 0.92193989 0.74910616 
0.1577178 0.01063463 0.6589249 
0.31847034 0.34397532 0.34741015 
0.33146545 0.01531132 0.26528717 
0.18152966 0.84397532 0.84741015 
0.83146545 0.76528717 0.51531132 
0.66853455 0.98468868 0.73471283 
0.50821044 0.11050733 0.88949267 
0.57582083 0.74910616 0.92193989 
0.66853455 0.26528717 0.01531132 
0.08809971 0.00030412 0.28049745 
0.79764847 0.0716236 0.9283764 
0.81847034 0.84741015 0.84397532 
0.48639385 0.10935861 0.66178914 
0.51360615 0.89064139 0.33821086 
0.6577178 0.1589249 0.51063462 
0.93669882 0.83250099 0.16749901 
0.07582083 0.75089384 0.57806011 
0.3422822 0.51063463 0.1589249 
0.08809971 0.71950255 0.99969588 
0.56330118 0.33250099 0.66749901 
0.3422822 0.8410751 0.48936538 
0.98639385 0.39064139 0.83821086 
0.01360615 0.60935861 0.16178914 
0.29764847 0.4283764 0.5716236 
0.06330118 0.16749901 0.83250099 
0.91190029 0.99969588 0.71950255 
0.00821044 0.38949267 0.61050733 
0.41190029 0.21950255 0.49969588 
0.8422822 0.6589249 0.01063462 
0.07582083 0.42193989 0.24910616 
0.83146545 0.48468868 0.23471283 
0.8422822 0.98936537 0.3410751 
0.91190029 0.28049745 0.00030412 
0.68152966 0.34741015 0.34397532 
0.18152966 0.15258985 0.15602468 
0.70235153 0.5716236 0.4283764 
