System
1.0
6.34592487 0.02065932 0.83614033
0.73587439 6.30314827 0.83614033
0.02313562 0.02065932 6.40073104
Cr Fe Sm
2 15 2
direct
0.08606722 0.08606722 0.08606722 
0.91393278 0.91393278 0.91393278 
0.33855933 0.33855933 0.84452006 
0.33855933 0.84452006 0.33855933 
0.0 0.0 0.5 
0.5 0.0 0.0 
0.0 0.5 0.0 
0.29809353 0.70190647 0.0 
0.0 0.29809353 0.70190647 
0.70190647 0.0 0.29809353 
0.70190647 0.29809353 0.0 
0.0 0.70190647 0.29809353 
0.29809353 0.0 0.70190647 
0.66144067 0.15547994 0.66144067 
0.66144067 0.66144067 0.15547994 
0.15547994 0.66144067 0.66144067 
0.84452006 0.33855933 0.33855933 
0.65751593 0.65751593 0.65751593 
0.34248407 0.34248407 0.34248407 
