System
1.0
10.42252274 0.0 0.0
0.0 11.24260643 0.0
0.0 0.0 13.0307435
Co Te O
24 20 64
direct
0.93328724 0.24724211 0.99373328 
0.43328724 0.75275789 0.00626672 
0.40972358 0.24952689 0.22987701 
0.57281685 0.98524866 0.10703688 
0.09027642 0.24952689 0.22987701 
0.59027642 0.25047311 0.72987701 
0.07281685 0.01475134 0.89296312 
0.40972358 0.74952689 0.27012299 
0.43328724 0.25275789 0.49373328 
0.09027642 0.74952689 0.27012299 
0.93328724 0.74724211 0.50626672 
0.07281685 0.51475134 0.60703688 
0.56671276 0.74724211 0.50626672 
0.06671276 0.25275789 0.49373328 
0.92718315 0.48524866 0.39296312 
0.42718315 0.01475134 0.89296312 
0.06671276 0.75275789 0.00626672 
0.90972358 0.75047311 0.77012299 
0.57281685 0.48524866 0.39296312 
0.56671276 0.24724211 0.99373328 
0.59027642 0.75047311 0.77012299 
0.90972358 0.25047311 0.72987701 
0.42718315 0.51475134 0.60703688 
0.92718315 0.98524866 0.10703688 
0.75 0.22173967 0.4935063 
0.75 0.53443937 0.63845084 
0.03788979 0.99003179 0.63472565 
0.25 0.77826033 0.5064937 
0.53788979 0.00996821 0.36527435 
0.46211021 0.99003179 0.63472565 
0.03788979 0.49003179 0.86527435 
0.53788979 0.50996821 0.13472565 
0.25 0.80033919 0.81607197 
0.75 0.03443937 0.86154916 
0.25 0.27826033 0.9935063 
0.25 0.30033919 0.68392803 
0.75 0.69966081 0.31607197 
0.96211021 0.50996821 0.13472565 
0.25 0.46556063 0.36154916 
0.25 0.96556063 0.13845084 
0.96211021 0.00996821 0.36527435 
0.75 0.72173967 0.0064937 
0.75 0.19966081 0.18392803 
0.46211021 0.49003179 0.86527435 
0.05606543 0.32444992 0.65008527 
0.88854941 0.06105535 0.95814318 
0.61057765 0.81475974 0.05660831 
0.44393457 0.32444992 0.65008527 
0.48176473 0.92547647 0.24410727 
0.11145059 0.43894465 0.45814318 
0.38942235 0.68524026 0.55660831 
0.04597278 0.8983486 0.4540954 
0.75 0.77996501 0.44710862 
0.94393457 0.67555008 0.34991473 
0.88854941 0.56105535 0.54185682 
0.41937191 0.63822449 0.14144247 
0.44393457 0.82444992 0.84991473 
0.51823527 0.07452353 0.75589273 
0.88942235 0.81475974 0.05660831 
0.38854941 0.43894465 0.45814318 
0.25 0.97130021 0.83374139 
0.75 0.28065174 0.63190837 
0.55606543 0.17555008 0.15008527 
0.75 0.69201517 0.68621913 
0.45402722 0.3983486 0.0459046 
0.98176473 0.57452353 0.74410727 
0.38942235 0.18524026 0.94339169 
0.61145059 0.06105535 0.95814318 
0.58062809 0.86177551 0.64144247 
0.04597278 0.3983486 0.0459046 
0.25 0.30798483 0.31378087 
0.25 0.80798483 0.18621913 
0.25 0.22003499 0.55289138 
0.25 0.21934826 0.13190837 
0.11145059 0.93894465 0.04185682 
0.38854941 0.93894465 0.04185682 
0.75 0.78065174 0.86809163 
0.95402722 0.1016514 0.5459046 
0.54597278 0.6016514 0.9540954 
0.91937191 0.36177551 0.85855753 
0.01823527 0.92547647 0.24410727 
0.41937191 0.13822449 0.35855753 
0.61145059 0.56105535 0.54185682 
0.75 0.19201517 0.81378087 
0.05606543 0.82444992 0.84991473 
0.55606543 0.67555008 0.34991473 
0.08062809 0.13822449 0.35855753 
0.98176473 0.07452353 0.75589273 
0.45402722 0.8983486 0.4540954 
0.61057765 0.31475974 0.44339169 
0.75 0.02869979 0.16625861 
0.25 0.47130021 0.66625861 
0.25 0.72003499 0.94710862 
0.88942235 0.31475974 0.44339169 
0.75 0.52869979 0.33374139 
0.75 0.27996501 0.05289138 
0.11057765 0.18524026 0.94339169 
0.08062809 0.63822449 0.14144247 
0.01823527 0.42547647 0.25589273 
0.54597278 0.1016514 0.5459046 
0.11057765 0.68524026 0.55660831 
0.48176473 0.42547647 0.25589273 
0.25 0.71934826 0.36809163 
0.91937191 0.86177551 0.64144247 
0.94393457 0.17555008 0.15008527 
0.51823527 0.57452353 0.74410727 
0.58062809 0.36177551 0.85855753 
0.95402722 0.6016514 0.9540954 
