System
1.0
11.67634076 0.0 0.0
0.0 12.79528466 0.00420387
0.0 0.00495448 14.87062703
Al P H C Cl
8 8 64 16 32
direct
0.21454817 0.96668238 0.87229875 
0.28545183 0.46668238 0.87229875 
0.26069665 0.91714409 0.37503449 
0.23930335 0.41714409 0.37503449 
0.78545183 0.03331762 0.12770125 
0.73930335 0.08285591 0.62496551 
0.71454817 0.53331762 0.12770125 
0.76069665 0.58285591 0.62496551 
0.63909217 0.35176428 0.39206662 
0.36090783 0.64823572 0.60793338 
0.35479615 0.65729101 0.14095107 
0.86090783 0.85176428 0.39206662 
0.85479615 0.84270899 0.85904893 
0.64520385 0.34270899 0.85904893 
0.13909217 0.14823572 0.60793338 
0.14520385 0.15729101 0.14095107 
0.15659069 0.70418918 0.14366473 
0.67727128 0.93468787 0.8614242 
0.19739644 0.63185729 0.70344864 
0.31097037 0.04735408 0.60704852 
0.83900053 0.3156751 0.40486556 
0.99519688 0.28204235 0.12286031 
0.82272872 0.43468787 0.8614242 
0.34340931 0.20418918 0.14366473 
0.13306374 0.15058294 0.23490315 
0.08258048 0.07349557 0.1044412 
0.18902963 0.54735408 0.60704852 
0.90731853 0.71670863 0.9708024 
0.17727128 0.56531213 0.1385758 
0.80307414 0.35632122 0.96067958 
0.32272872 0.06531213 0.1385758 
0.19692586 0.64367878 0.03932042 
0.64261719 0.16601277 0.39076584 
0.00480312 0.71795765 0.87713969 
0.14261719 0.33398723 0.60923416 
0.57297283 0.42994877 0.35033761 
0.89661318 0.71829521 0.28305363 
0.63306374 0.34941706 0.76509685 
0.1332937 0.34310738 0.13350703 
0.37983331 0.6380718 0.51494038 
0.09268147 0.28329137 0.0291976 
0.39661318 0.78170479 0.71694637 
0.36693626 0.65058294 0.23490315 
0.69692586 0.85632122 0.96067958 
0.85738281 0.66601277 0.39076584 
0.91741952 0.92650443 0.8955588 
0.65659069 0.79581082 0.85633527 
0.66099947 0.8156751 0.40486556 
0.60338682 0.21829521 0.28305363 
0.16099947 0.6843249 0.59513444 
0.07297283 0.07005123 0.64966239 
0.35738281 0.83398723 0.60923416 
0.30307414 0.14367878 0.03932042 
0.81097037 0.45264592 0.39295148 
0.40731853 0.78329137 0.0291976 
0.92702717 0.92994877 0.35033761 
0.6332937 0.15689262 0.86649297 
0.68902963 0.95264592 0.39295148 
1.00058626 0.284121 0.62695589 
0.10338682 0.28170479 0.71694637 
0.84340931 0.29581082 0.85633527 
0.80260356 0.36814271 0.29655136 
0.50058626 0.215879 0.37304411 
0.8667063 0.65689262 0.86649297 
-0.00058626 0.715879 0.37304411 
0.87983331 0.8619282 0.48505962 
0.3667063 0.84310738 0.13350703 
0.30260356 0.13185729 0.70344864 
0.49519688 0.21795765 0.87713969 
0.86693626 0.84941706 0.76509685 
0.33900053 0.1843249 0.59513444 
0.62016669 0.3619282 0.48505962 
0.50480312 0.78204235 0.12286031 
0.12016669 0.1380718 0.51494038 
0.58258048 0.42650443 0.8955588 
0.69739644 0.86814271 0.29655136 
0.49941374 0.784121 0.62695589 
0.42702717 0.57005123 0.64966239 
0.59268147 0.21670863 0.9708024 
0.41741952 0.57349557 0.1044412 
0.79357166 0.35893252 0.88729784 
0.91448728 0.72140982 0.89731803 
0.08551272 0.27859018 0.10268197 
0.78772527 0.37437345 0.36920785 
0.20642834 0.64106748 0.11270216 
0.21227473 0.62562655 0.63079215 
0.9086126 0.72550323 0.35598705 
0.5913874 0.22550323 0.35598705 
0.70642834 0.85893252 0.88729784 
0.29357166 0.14106748 0.11270216 
0.71227473 0.87437345 0.36920785 
0.58551272 0.22140982 0.89731803 
0.41448728 0.77859018 0.10268197 
0.4086126 0.77449677 0.64401295 
0.28772527 0.12562655 0.63079215 
0.0913874 0.27449677 0.64401295 
0.31108999 0.07896465 0.37835934 
0.6644705 0.37036983 0.12986072 
0.60173916 0.04386475 0.13389882 
0.65384154 0.61403131 0.50836096 
0.35033177 0.39629644 0.99394727 
0.63765268 0.61132824 0.24206501 
0.83869969 0.10914962 0.74561535 
0.10173916 0.45613525 0.86610118 
0.15384154 0.88596869 0.49163904 
0.86234732 0.11132824 0.24206501 
0.8355295 0.87036983 0.12986072 
0.33869969 0.39085038 0.25438465 
0.90742099 0.68447802 0.62281005 
0.68891001 0.92103535 0.62164066 
0.09257901 0.31552198 0.37718995 
0.66130031 0.60914962 0.74561535 
0.34615846 0.38596869 0.49163904 
0.13765268 0.88867176 0.75793499 
0.1644705 0.12963017 0.87013928 
0.64966823 0.60370356 0.00605273 
0.16130031 0.89085038 0.25438465 
0.14966823 0.89629644 0.99394727 
0.85033177 0.10370356 0.00605273 
0.39826084 0.95613525 0.86610118 
0.36234732 0.38867176 0.75793499 
0.59257901 0.18447802 0.62281005 
0.89826084 0.54386475 0.13389882 
0.40742099 0.81552198 0.37718995 
0.84615846 0.11403131 0.50836096 
0.3355295 0.62963017 0.87013928 
0.18891001 0.57896465 0.37835934 
0.81108999 0.42103535 0.62164066 
