System
1.0
7.55537331 0.01042542 0.00967213
0.01045287 7.54199419 0.00496907
0.0193707 0.00993454 15.08827124
Ca Ta Ga Cu O
4 8 8 12 48
direct
0.26753428 0.24739679 0.12437381 
0.25176512 0.25126899 0.62504696 
0.74823488 0.74873101 0.37495304 
0.73246572 0.75260321 0.87562619 
0.0 0.0 0.0 
0.99911767 0.0036996 0.25359747 
0.0 0.5 0.0 
0.00088233 0.9963004 0.74640253 
0.0 0.5 0.5 
0.5 0.0 0.5 
0.50021116 0.49900356 0.74953776 
0.49978884 0.50099644 0.25046224 
0.00071338 0.49967602 0.24906866 
0.0 0.0 0.5 
0.99928662 0.50032398 0.75093134 
0.5 0.0 0.0 
0.49975899 0.99760273 0.2466478 
0.50024101 0.00239727 0.7533522 
0.5 0.5 0.0 
0.5 0.5 0.5 
0.25044481 0.25040445 0.37499222 
0.25724121 0.75089624 0.12471217 
0.25003664 0.7500012 0.37498541 
0.25461078 0.25004081 0.8746159 
0.25173648 0.74930168 0.62495047 
0.25786671 0.74986936 0.87482412 
0.74213329 0.25013064 0.12517588 
0.74826352 0.25069832 0.37504953 
0.74538922 0.74995919 0.1253841 
0.74996336 0.2499988 0.62501459 
0.74275879 0.24910376 0.87528783 
0.74955519 0.74959555 0.62500778 
0.05369526 0.75111374 0.28629994 
0.05315469 0.74979834 0.46307973 
0.05405026 0.75124075 0.78770194 
0.05350213 0.75068914 0.96265195 
0.0745161 0.55484753 0.12350441 
0.07363423 0.94667746 0.124572 
0.0737001 0.55360687 0.62480543 
0.07470503 0.9458833 0.62410731 
0.24997479 0.07353611 0.47335755 
0.25032226 0.42645217 0.27683869 
0.2447674 0.07423124 0.9729051 
0.25046506 0.4264632 0.77634943 
0.24849556 0.07316863 0.27685244 
0.24634349 0.07400808 0.77662922 
0.24954592 0.42654688 0.47337645 
0.24729951 0.42553217 0.9729673 
0.42767824 0.55184961 0.12644761 
0.42544195 0.94669038 0.12501919 
0.42640552 0.55331027 0.62460463 
0.42683015 0.9471129 0.6252106 
0.44689548 0.75051697 0.46332832 
0.44727693 0.7496438 0.28773031 
0.44627403 0.74830572 0.96275626 
0.44753379 0.74940539 0.78521543 
0.55246621 0.25059461 0.21478457 
0.55372597 0.25169428 0.03724374 
0.55272307 0.2503562 0.71226969 
0.55310452 0.24948303 0.53667168 
0.57316985 0.0528871 0.3747894 
0.57359448 0.44668973 0.37539537 
0.57455805 0.05330962 0.87498081 
0.57232176 0.44815039 0.87355239 
0.75270049 0.57446783 0.0270327 
0.75045408 0.57345312 0.52662355 
0.75365651 0.92599192 0.22337078 
0.75150444 0.92683137 0.72314756 
0.74953494 0.5735368 0.22365057 
0.7552326 0.92576876 0.0270949 
0.74967774 0.57354783 0.72316131 
0.75002521 0.92646389 0.52664245 
0.92529497 0.0541167 0.37589269 
0.9262999 0.44639313 0.37519457 
0.92636577 0.05332254 0.875428 
0.9254839 0.44515247 0.87649559 
0.94649787 0.24931086 0.03734805 
0.94594974 0.24875925 0.21229806 
0.94684531 0.25020166 0.53692027 
0.94630474 0.24888626 0.71370006 
