System
1.0
3.93865722 0.0 0.0
-1.96932861 3.41097736 0.0
0.0 0.0 6.66672242
Co I
1 2
direct
0.0 0.0 0.0 
0.333333 0.666667 0.23021359 
0.666667 0.333333 0.76978641 
