System
1.0
9.27249156 0.02530129 -3.08308128
-3.29876939 12.06466512 -4.59497961
-0.01549894 -0.04927987 13.4985815
Co C S O
12 36 4 36
direct
0.79155071 0.76030276 0.29834281 
0.32409696 0.09688403 0.22501755 
0.53388764 0.68954774 0.65224323 
0.06732259 0.3859277 0.77624869 
0.2792742 0.34151813 0.92435617 
0.6135806 0.16810801 0.26665478 
0.20844929 0.23969724 0.70165719 
0.46611236 0.31045226 0.34775677 
0.67590304 0.90311597 0.77498245 
0.3864194 0.83189199 0.73334522 
0.93267741 0.6140723 0.22375131 
0.7207258 0.65848187 0.07564383 
0.37666722 0.95854468 0.83192913 
0.6934993 0.15214734 0.39617307 
0.91584044 0.29173923 0.77103283 
0.01392731 0.59906515 0.35607265 
0.61017134 0.42716998 0.38020784 
0.15399096 0.23412073 0.55956152 
0.64437223 0.9359314 0.65469305 
0.71720958 0.03843259 0.88643716 
0.69384079 0.63488724 0.67358194 
0.23679274 0.73521701 0.72877014 
0.92031436 0.88174941 0.32328945 
0.06116599 0.51232526 0.87851792 
0.08415956 0.70826077 0.22896717 
0.83542966 0.7669381 0.06696088 
0.3065007 0.84785266 0.60382693 
0.62712414 0.80942414 0.28387963 
0.16457034 0.2330619 0.93303912 
0.07968564 0.11825059 0.67671055 
0.84600904 0.76587927 0.44043848 
0.70425311 0.54399275 0.94885961 
0.29574689 0.45600725 0.05114039 
0.35562777 0.0640686 0.34530695 
0.62333278 0.04145532 0.16807087 
0.76320726 0.26478299 0.27122986 
0.38982866 0.57283002 0.61979216 
0.37287586 0.19057586 0.71612037 
0.13921049 0.11558403 0.19981963 
0.98607269 0.40093485 0.64392735 
0.45867798 0.31362614 0.96861056 
0.49067659 0.69071943 0.51402222 
0.54132202 0.68637386 0.03138944 
0.86078951 0.88441597 0.80018037 
0.30615921 0.36511276 0.32641806 
0.50932341 0.30928057 0.48597778 
0.28279042 0.96156741 0.11356284 
0.93883401 0.48767474 0.12148208 
0.698495 0.5851547 0.19118532 
0.5762136 0.79055559 0.8297451 
0.301505 0.4148453 0.80881468 
0.4237864 0.20944441 0.1702549 
0.70225442 0.50450911 0.40284705 
0.92710098 0.41069045 0.56000004 
0.85792024 0.3248699 0.2697829 
0.79252887 0.59486419 0.69105094 
0.05442755 0.59459277 0.94206755 
0.94557245 0.40540723 0.05793245 
0.45948811 0.68900193 0.42293499 
0.30884491 0.52734149 0.13566116 
0.69115509 0.47265851 0.86433884 
0.01798588 0.12354345 0.18151299 
0.7471667 0.13653329 0.47763456 
0.00030416 0.96200701 0.33758089 
0.57820532 0.30356597 0.00394352 
0.91269404 0.83761721 0.06310968 
0.42179468 0.69643403 0.99605648 
0.11969125 0.22705278 0.46653292 
0.75058116 0.1256461 0.95974592 
0.20747113 0.40513581 0.30894906 
0.36272267 0.0383147 0.89441756 
0.81805452 0.23325639 0.77132278 
0.52498023 0.84553929 0.28151742 
0.47501977 0.15446071 0.71848258 
0.18194548 0.76674361 0.22867722 
0.08730596 0.16238279 0.93689032 
0.07289902 0.58930955 0.43999996 
0.98201412 0.87645655 0.81848701 
0.2528333 0.86346671 0.52236544 
0.63727733 0.9616853 0.10558244 
0.29774558 0.49549089 0.59715295 
0.6283021 0.95757117 0.5764167 
0.24941884 0.8743539 0.04025408 
0.14207976 0.6751301 0.7302171 
0.99969584 0.03799299 0.66241911 
0.88030875 0.77294722 0.53346708 
0.3716979 0.04242883 0.4235833 
0.54051189 0.31099807 0.57706501 
