System
1.0
1.518667354700616 -2.6304084360385946 0.0
1.518667354700616 2.6304084360385946 -0.0
0.0 -0.0 6.329751999385637
Be V Sb
1 1 1
direct
0.0 0.0 0.9687696068794207 
0.3333330000000032 0.6666669999999967 0.6909733997961885 
0.6666669999999968 0.33333300000000315 0.3402569933243909 
