System
1.0
3.8553652997390637 1.3717522e-09 2.225896105104538
1.2851214358329552 3.6348731213523555 2.225896105104538
0.0 0.0 4.451792210209076
Li In Ir
2 1 1
direct
0.5 0.49999999999999994 0.5000000000000002 
0.25 0.24999999999999997 0.2500000000000001 
0.7499999999999998 0.75 0.7500000000000001 
0.0 0.0 0.0 
