System
1.0
-0.0 5.018718825735168 5.018718825735168
5.018718825735168 0.0 5.018718825735168
5.018718825735168 5.018718825735168 -0.0
Ba Hf Te
4 1 1
direct
0.12479184389635603 0.6250697187012162 0.6250697187012162 
0.6250697187012162 0.6250697187012162 0.6250697187012162 
0.6250697187012162 0.12479184389635603 0.6250697187012162 
0.6250697187012162 0.6250697187012162 0.12479184389635606 
0.25 0.25 0.25 
0.0 0.0 0.0 
