System
1.0
3.9809802767601368 0.0 0.0
0.0 3.9809802767601368 0.0
-0.0 0.0 6.227671224692113
K Na O
2 2 2
direct
0.0 0.5 0.3654360515701105 
0.5 0.0 0.6345639484298895 
0.0 0.0 0.0 
0.5 0.5 0.0 
0.5 0.0 0.2077564797474812 
0.0 0.5 0.792243520252519 
