System
1.0
0.0 4.234061874473275 4.234061874473275
4.234061874473275 -0.0 4.234061874473275
4.234061874473275 4.234061874473275 0.0
Na Sc Be
4 1 1
direct
0.12217791785534826 0.6259403607148823 0.6259403607148825 
0.6259403607148823 0.6259403607148823 0.6259403607148823 
0.6259403607148823 0.12217791785534826 0.6259403607148825 
0.6259403607148823 0.6259403607148823 0.12217791785534826 
0.25 0.25 0.25 
0.0 0.0 0.0 
