System
1.0
2.3726131205213385 5.557115e-10 1.3698285721320873
0.7908710406977093 2.2369215357098073 1.3698285721320878
1.5717897e-09 1.1114234e-09 2.739658138819335
Tc
1
direct
0.0 0.0 0.0 
