System
1.0
3.6137216690039287 0.0 0.0
-1.8068608345019643 3.1295753445295293 0.0
-0.0 -0.0 5.804730255145072
Sm
2
direct
0.3333330000000032 0.6666669999999968 0.25 
0.6666669999999968 0.3333330000000032 0.7500000000000001 
