System
1.0
-0.0 3.9322575102792023 3.9322575102792023
3.9322575102792023 0.0 3.9322575102792023
3.9322575102792023 3.9322575102792023 0.0
Mg Ti Be
4 1 1
direct
0.12618035419927878 0.6246068819335728 0.6246068819335729 
0.6246068819335728 0.6246068819335728 0.6246068819335728 
0.6246068819335729 0.12618035419927884 0.6246068819335728 
0.6246068819335728 0.6246068819335728 0.12618035419927884 
0.25 0.25 0.25 
0.0 0.0 0.0 
