System
1.0
5.460831422554435 2.3567829e-09 -2.409572695455095
-1.0632154771462152 5.3563282443837 -2.4095726996483147
-0.0564860776712494 -0.068799924657454 7.264733099349547
Li In Se
2 2 4
direct
0.49999999999999994 0.5000000000000001 -2.749881630352073e-17 
0.7499999999999999 0.25 0.5 
0.25 0.7500000000000001 0.5 
0.0 0.0 0.0 
0.8618333562359095 0.8750000000004259 0.2500000000008847 
0.6249999999999344 0.13816664376439247 0.749999999999836 
0.3881666437640909 0.37499999999957423 0.24999999999911532 
0.1250000000000655 0.6118333562356075 0.7500000000001641 
