System
1.0
-2.30509369940034 2.30509369940034 3.9938708262938616
2.30509369940034 -2.30509369940034 3.9938708262938616
2.30509369940034 2.30509369940034 -3.9938708262938616
K Be Ge
1 1 2
direct
0.5 0.5 0.0 
0.75 0.25 0.5 
0.0 0.0 0.0 
0.24999999999999997 0.75 0.5 
