System
1.0
3.2079323326629483 1.5063789199965292 -0.2684212909691943
-3.2079323326629483 1.5063789199965292 0.2684212909691943
-2.858566893854097 0.0 5.6833045760693075
Na Ag O
1 1 2
direct
0.5 0.49999999999999994 0.5000000000000001 
0.0 0.0 0.0 
0.3290095104391412 0.6709904895608587 0.7555058372648884 
0.6709904895608589 0.3290095104391412 0.24449416273511151 
