System
1.0
-0.0 4.2097175363432955 4.2097175363432955
4.2097175363432955 0.0 4.2097175363432955
4.2097175363432955 4.2097175363432955 -0.0
Ba Mg Zr
2 1 1
direct
0.25 0.25 0.25 
0.75 0.75 0.75 
0.0 0.0 0.0 
0.5 0.5 0.5 
