System
1.0
3.6927185835613443 0.0026529880139102 5.551865268176686
1.6797138580428166 3.2885772279466488 5.551865268329288
0.0043305983818809 0.0026529875259823 6.667785923657998
Ca Mg S
1 1 2
direct
0.0 0.0 0.0 
0.4999999999999999 0.49999999999999994 0.5 
0.2431551845164628 0.2431551845164382 0.24315518451618817 
0.7568448154835371 0.7568448154835619 0.7568448154838121 
