System
1.0
-1.7987862795493426 1.7987862795493426 4.47985283429261
1.7987862795493426 -1.7987862795493426 4.47985283429261
1.7987862795493426 1.7987862795493426 -4.47985283429261
Ta Be Cd
1 2 1
direct
0.75 0.25 0.5 
0.0 0.0 0.0 
0.25000000000000006 0.7499999999999999 0.5 
0.49999999999999994 0.49999999999999994 0.0 
