System
1.0
-3.823231709242496 3.823231709242496 3.8777546424083074
3.823231709242496 -3.823231709242496 3.8777546424083074
3.823231709242496 3.823231709242496 -3.8777546424083074
As H N O
2 12 2 8
direct
0.7499999999999999 0.25 0.5 
0.0 0.0 0.0 
0.8749999999999999 0.9664204308655556 0.5914204308655557 
0.375 0.2835795691344448 0.4085795691344448 
0.7164204308655557 0.125 0.0914204308655554 
0.594384442860867 0.6865680940426098 0.1300748333905783 
0.19350573934797088 0.5634319059573901 0.40781634881825024 
0.03357956913444449 0.6249999999999999 0.9085795691344442 
0.15561555713913255 0.7856893905297133 0.5921836511817495 
0.5356893905297133 0.4056155571391326 0.0921836511817496 
0.43656809404260993 0.8443844428608671 0.6300748333905783 
0.31343190595739 0.4435057393479709 0.9078163488182505 
0.2143106094702865 0.8064942606520289 0.36992516660942154 
0.5564942606520288 0.4643106094702866 0.8699251666094214 
0.24999999999999997 0.75 0.5 
0.49999999999999994 0.49999999999999994 0.0 
0.7173289753013927 0.9629053765034218 0.4281477729800039 
0.710818797678604 0.2826710246986072 0.2455774012020266 
0.7129053765034218 0.9673289753013927 0.9281477729800037 
0.037094623496578064 0.46524139647658447 0.7544225987979738 
0.03918120232139602 0.7847586035234153 0.07185222701999605 
0.5347586035234153 0.28918120232139594 0.5718522270199962 
0.032671024698607054 0.9608187976786041 0.7455774012020262 
0.21524139647658444 0.287094623496578 0.2544225987979734 
