System
1.0
-2.842173464977243 2.8421734649772423 6.161098456044075
2.842173464977243 -2.8421734649772423 6.161098456044075
2.842173464977243 2.8421734649772423 -6.161098456044075
Tb Ag Se
2 2 4
direct
0.0021708516879853997 0.0021708516879854 0.0 
0.7521718516879823 0.2521708516879855 0.5000009999999975 
0.5365957108322147 0.5365957108322147 0.0 
0.286595710832215 0.786596710832212 0.5000009999999975 
0.2344646306136246 0.2344646306136246 0.0 
0.9844646306136245 0.48446663061361933 0.5000009999999975 
0.7667698068661787 0.7667698068661787 0.0 
0.5167708068661833 0.016768806866181284 0.5000009999999975 
