System
1.0
5.165492908527079 6.2904204e-09 2.982298630652942
1.7218309754396912 4.870073923839723 2.982298630652944
1.77919967e-08 1.25808429e-08 5.964598199269707
Rb Mn F
2 1 6
direct
0.75 0.75 0.7499999999999998 
0.25 0.25 0.24999999999999997 
0.0 0.0 0.0 
0.21713098186814955 0.7828690181305895 0.7828690181432046 
0.21713098188275298 0.7828690181451927 0.21713098184345278 
0.7828690181172469 0.2171309818548071 0.7828690181565473 
0.7828690181318504 0.2171309818694104 0.21713098185679522 
0.7828690181112059 0.782869018137891 0.21713098186084792 
0.21713098188879382 0.2171309818621088 0.782869018139152 
