System
1.0
2.8205747153595966 -0.6811134981901508 -0.6459442963127585
-2.000149420975222 3.464359899753052 1.2918895365410752
-1.1947658210178693 2.0693930443897175 6.279059530435563
Cr O
2 2
direct
2.3664143120446456e-06 2.6580263064180905e-05 0.8999994104185075 
-2.366414271624754e-06 2.421384874992306e-05 0.3999994104184987 
0.4999934967541473 0.750021851320759 0.15000058958131782 
0.5000065032458125 0.2500283545674206 0.6500005895816847 
