System
1.0
3.9459065146157646 -0.0 0.0
-0.0 3.945906514615764 -0.0
-0.0 0.0 3.945906514615764
K Br
1 1
direct
0.0 0.0 0.0 
0.5 0.5 0.5 
