System
1.0
2.918937323250046 2.918937323250046 -0.0
2.918937323250046 0.0 -2.918937323250046
0.0 2.918937323250046 -2.918937323250046
K Cu O
1 1 1
direct
0.5 0.5 0.5 
0.0 0.0 0.0 
0.7500000000000001 0.7500000000000001 0.7500000000000001 
