System
1.0
3.9017128014200195 -2.141238e-10 -1.5344009702582804
-0.6034239947085768 3.8547689272155936 -1.5344009720732896
-0.0379362794458303 -0.044336403331366 5.6314223517107775
Er Si Os
1 2 2
direct
0.0 0.0 0.0 
0.6274836891672412 0.6274836891660724 0.25496837833205444 
0.3725153108327612 0.37251531083393 0.7450316216679457 
0.24999999999999997 0.7499999999999998 0.49999999999999994 
0.75 0.24999999999999994 0.5 
