System
1.0
0.0 5.243702528345856 0.0005314227847569
7.466619259502586 0.0 0.0
0.0 -0.3549420879397523 -8.259326077847131
Er Ta O
2 6 18
direct
0.9672850441901997 0.25 0.5655040397481398 
0.03271495580980031 0.75 0.43449596025186005 
0.0 0.0 0.0 
0.0 0.5 0.0 
0.5287920533181748 0.0079783412579128 0.3028339747940976 
0.5287920533181748 0.4920216587420872 0.3028339747940976 
0.4712079466818254 0.9920216587420869 0.6971660252059025 
0.4712079466818254 0.5079783412579131 0.6971660252059025 
0.1432475228239842 0.067255732311627 0.7826237975780802 
0.2562808868025562 0.45452031565433304 0.4663343954423345 
0.2562808868025562 0.0454796843456668 0.4663343954423345 
0.32689373035612906 0.75 0.6518665864602022 
0.3293056738737519 0.4406882162557303 0.1178602122525184 
0.3293056738737519 0.05931178374426959 0.1178602122525184 
0.4181640420577163 0.75 0.3120837642071126 
0.5818359579422836 0.25 0.6879162357928871 
0.7437191131974444 0.5454796843456668 0.5336656045576657 
0.6706943261262479 0.9406882162557306 0.8821397877474813 
0.6731062696438711 0.25 0.3481334135397977 
0.1432475228239842 0.4327442676883728 0.7826237975780802 
0.7437191131974444 0.9545203156543332 0.5336656045576657 
0.8567524771760161 0.5672557323116268 0.21737620242192 
0.8567524771760161 0.932744267688373 0.21737620242192 
0.8943228325764923 0.25 0.0229948056749132 
0.6706943261262479 0.5593117837442694 0.8821397877474813 
0.10567716742350788 0.75 0.9770051943250865 
