System
1.0
2.9084657832063203 9.891258e-10 2e-16
-1.4542331329741065 2.5188051149388815 2e-16
-0.0 -0.0 7.355231673807151
Sc B C
2 2 2
direct
0.0 0.0 0.49999999999999994 
0.0 0.0 0.0 
0.3333333333333357 0.6666666666666643 0.75 
0.6666666666666643 0.3333333333333357 0.24999999999999997 
0.3333333333333357 0.6666666666666643 0.24999999999999997 
0.6666666666666643 0.3333333333333357 0.75 
