System
1.0
4.02549192005325 -1.35599e-10 -1.174695472596968
-0.3427923558150323 4.010870174943105 -1.1746954728658887
0.3333104815951442 0.3630125171037532 8.62690575116738
Pr Ge
2 4
direct
0.8750000000000001 0.625 0.24999999999999997 
0.125 0.37500000000000006 0.7499999999999999 
0.7049735844203185 0.9549735844203165 0.9099471688406431 
0.4549735844203185 0.20497358442031632 0.4099471688406431 
0.5450264155796813 0.7950264155796836 0.5900528311593567 
0.2950264155796815 0.045026415579683704 0.0900528311593569 
