System
1.0
5.3076919455586 -6.335137502e-07 3.0643978560592116
1.769230659702914 5.0040967935443215 3.0643978560592116
0.0 0.0 6.128795712118423
Ba Ta Bi O
2 1 1 6
direct
0.7499999979289118 0.750000006717676 0.7499999976767064 
0.2500000629463802 0.2500000198315854 0.24999995861101726 
0.49999993006937565 0.5000001126263067 0.49999997865215895 
1.2825310799999999e-08 3.75745326e-08 -2.51999217e-08 
0.7308653098055706 0.7308651697619815 0.26913476021622407 
0.2691347235117406 0.730865371426523 0.7308651966585546 
0.2691347235117406 0.730865371426523 0.26913470840318177 
0.2691343374846962 0.2691354730215696 0.7308655947468659 
0.7308644509581392 0.26913471880664985 0.26913463584435543 
0.7308644509581392 0.26913471880664985 0.7308651943908578 
