System
1.0
4.223539501333164 0.0 0.0
-2.111769750666582 3.657692502081349 0.0
-0.0 -0.0 10.211257129672063
Rb Cu Se
2 2 2
direct
0.0 0.0 0.4999999762466132 
0.0 0.0 0.0 
0.6666660977984762 0.33333328550019553 0.24999998812882748 
0.3333332854857289 0.6666665709714579 0.7499999643754407 
0.6666660977984762 0.33333328550019553 0.7499999643754407 
0.3333332854857289 0.6666665709714579 0.24999998812882748 
