System
1.0
4.402183499836548 8.6712887e-09 3e-16
-2.20109229933996 3.812402425770329 3e-16
-0.0 -0.0 3.5717313215121305
Er Al Ga
1 1 1
direct
0.3333333333333357 0.6666666666666643 0.0 
0.6666666666666643 0.3333333333333357 0.5 
0.0 0.0 0.5 
