System
1.0
2.586940586730386 -7.9523e-12 -0.0
-1.2934702934286746 2.2403562661870424 0.0
0.0 -0.0 2.5318068407673984
B O
1 1
direct
0.0 0.0 0.0 
0.3333334484004311 0.6666668968008551 0.0 
