System
1.0
4.047092791890207 2.972607112036204 0.8157901352702364
-4.047092791890207 2.972607112036204 -0.8157901352702364
0.0711772804235168 0.0 8.283394173946949
Sr H O
2 8 12
direct
0.8297925039007742 0.8287884451510993 0.7671182577053203 
0.1712115548489011 0.1702074960992258 0.2671182577053203 
0.2706177826141135 0.6703556602811809 0.9646050935451217 
0.6713844459800633 0.2696612692120063 0.569614847468251 
0.7303387307880014 0.3286155540199364 0.069614847468251 
0.3296443397188197 0.7293822173858867 0.46460509354512153 
0.20389815987144813 0.38970388080983587 0.6531902949633805 
0.6102961191901646 0.7961018401285518 0.15319029496338038 
0.39069631279722367 0.2028898491093649 0.8810163045492796 
0.797110150890635 0.6093036872027765 0.38101630454927937 
0.44593187056795397 0.48350821165272967 0.936819175903867 
0.4845667029308033 0.4449659943827865 0.5973560015476618 
0.019322647241420562 0.6493312413702162 0.33131378891099417 
0.6503330325819113 0.018280579383292833 0.20290778235906506 
0.9817194206167081 0.34966696741808784 0.7029077823590654 
0.17962693446155972 0.8339990085060498 0.973007192343308 
0.16600099149394995 0.8203730655384404 0.47300719234330824 
0.8213713854543011 0.16498963854301063 0.06122626070375149 
0.8350103614569895 0.17862861454569917 0.5612262607037514 
0.5164917883472697 0.554068129432046 0.43681917590386693 
0.3506687586297837 0.98067735275858 0.8313137889109938 
0.5550340056172137 0.5154332970691969 0.09735600154766189 
