System
1.0
3.5625172237037357 1.01511193e-08 0.0
-1.7812590942116875 3.0852304783888753 -0.0
-0.0 0.0 5.590645502937828
Dy
2
direct
0.3333330000000032 0.6666669999999968 0.24999999999999997 
0.6666669999999968 0.3333330000000032 0.75 
