System
1.0
4.1501089295058495 0.0 0.0
-0.0 4.1501089295058495 0.0
0.0 -0.0 8.53028459144213
Ba Sn N
2 2 4
direct
0.75 0.75 0.1527786957797093 
0.25 0.25 0.8472213042202907 
0.75 0.75 0.6024121261596304 
0.25 0.25 0.3975878738403698 
0.75 0.25 0.5 
0.25 0.75 0.5 
0.75 0.75 0.8422317850955073 
0.25 0.25 0.1577682149044924 
