System
1.0
9.03725558657422 -6.68841540572e-05 8.22607238107e-05
-4.518684574519276 7.826506492723365 -5.04556189374e-05
4.70181485193e-05 -6.6261952633e-06 5.1111642188987645
Tm Te O
6 3 18
direct
-1.996749263716399e-06 0.6204855819072478 -1.0657172144999993e-06 
-5.1997508906291355e-06 0.28374787062149304 0.5000058227309758 
0.3795169159065251 0.37951754523526854 1.2624533778000005e-06 
0.28374723152972375 -2.963932123899999e-06 0.4999884382042769 
0.7162478128111288 0.7162501233012096 0.5000054602696412 
0.6204775068338705 -1.345427932100001e-06 -4.32820021899999e-07 
-3.7544451788000004e-06 1.9239792163999996e-06 2.1364967e-08 
0.6666653410881482 0.333335410579595 0.5031658484875791 
0.33333004599759486 0.6666641846875144 0.496833915370918 
0.7969595094787556 0.9207803930432379 0.7852305763475632 
0.7644393124671566 0.2257781678027693 0.7216226344514648 
0.9207720715342425 0.796962431369059 0.21476738373752272 
0.7742189879127482 0.5386697655411811 0.721618574622275 
0.5427153482546194 0.1299635389333204 0.2861071355221841 
0.5872419868815437 0.45728238568659885 0.2861132135399063 
0.46132432036337145 0.23555006908574716 0.7216169390708498 
0.4572759082309137 0.5872435541757154 0.7138919380720146 
0.2355510483321914 0.46133009368914235 0.2783827637525089 
0.2030351151457294 0.12381148825062349 0.2147671998907449 
0.1238094802085639 0.20304364933631808 0.7852382274926399 
0.8700375587881845 0.4127546352768902 0.2861108566175304 
0.4127462268642254 0.8700356226449784 0.7138903599937548 
0.12995357414849135 0.5427155377944621 0.713885728921366 
0.2257781980404675 0.7644447491204123 0.2783717484588057 
0.07921786109078688 0.876191086911132 0.7852189148428109 
0.538670031432497 0.7742237801238764 0.2783866127494349 
0.8761815576038521 0.07921972026304779 0.21477792157212292 
