System
1.0
-3.7295376696343085 1.8423812e-09 0.0
0.0 -0.0 -4.629805379215423
-1.8647693284529285 -5.467706520447337 -0.0
Dy Au
2 2
direct
0.13820637197024588 0.75 0.7235862560584613 
0.8617936280297543 0.25 0.2764137439415391 
0.40930254381245273 0.75 0.1813949123735337 
0.5906974561875472 0.25 0.8186050876264666 
