System
1.0
0.0 5.755718400389993 -0.0301414503318749
3.929774205769747 0.0 0.0
0.0 -0.122718880925427 -8.356076144469707
Bi O F
4 3 7
direct
0.7714609408149384 0.5 0.1189955204539566 
0.7689228029859384 0.5 0.6276305719421224 
0.2571852174439629 0.0 0.3792292417737619 
0.1990919727113271 0.0 0.8765527533092756 
0.9462533214306041 0.5 0.8751234046426893 
0.0301326755726889 0.0 0.12125730584559502 
0.0285575376608246 0.0 0.6302437169510323 
0.9761813503818483 0.5 0.37479896106398863 
0.3749344173200606 0.5 0.22988488995007184 
0.3620037014509901 0.5 0.5416241084568199 
0.4160092911206664 0.5 0.8861958014663899 
0.5590817158259639 0.0 0.051932754979649706 
0.6548596980542911 0.0 0.3925947166570692 
0.5689263572258952 0.0 0.7202852525075633 
