System
1.0
3.5488212036957183 -0.0 -1.276091373573997
0.0 5.788659698014713 -0.0
0.1186577873613236 0.0 5.902682976063821
Sn S
2 2
direct
0.851190079834209 0.25 0.702380159526906 
0.1488099201657913 0.75 0.2976198404730937 
0.18908474928188462 0.25 0.37816949863577404 
0.8109152507181157 0.75 0.6218305013642262 
