System
1.0
4.305574201694818 1e-16 3e-16
8e-16 4.305574201694818 3e-16
-0.0 0.0 10.993189844481435
Ca Ga Ag
2 7 1
direct
0.5 0.0 0.752539248268913 
0.0 0.5 0.24746075173108692 
0.0 0.5 0.8623105025193232 
0.5 0.0 0.36261472198342765 
0.5 0.0 0.1376894974806768 
0.0 0.5 0.6373852780165727 
0.0 0.0 0.5 
0.0 0.0 0.0 
0.5 0.5 0.5 
0.5 0.5 0.0 
