System
1.0
0.0 3.140117205634035 3.140117205634035
3.140117205634035 0.0 3.140117205634035
3.140117205634035 3.140117205634035 0.0
Tc As Au
1 1 1
direct
0.0 0.0 0.0 
0.5 0.5 0.5 
0.25 0.25 0.25 
