System
1.0
1.397330501625066 -2.420247743130315 0.0
1.397330501625066 2.420247743130315 -0.0
0.0 -0.0 5.849222064280676
Be Zn Pd
1 1 1
direct
0.0 0.0 0.9848110023097504 
0.6666669999999968 0.3333330000000032 0.319056352589327 
0.3333330000000032 0.6666669999999968 0.6961326451009228 
