System
1.0
5.497155464713781 0.0100514571554316 -1.5341389537138996
-3.16571710177765 4.494113312605286 -1.5341389537138996
-0.0052028187283907 -0.0100514571572701 5.707212407401008
Pd Rh Pb
1 1 4
direct
0.0 0.0 0.0 
0.5 0.49999999999999994 2.2130758850409187e-17 
0.9138483413772288 0.41384834137722903 0.8276966827544576 
0.5861516586227711 0.086151658622771 0.17230331724554226 
0.08615165862277137 0.9138483413772288 0.49999999999999994 
0.41384834137722887 0.5861516586227712 0.5 
