System
1.0
3.938222413804207 0.0 0.0
0.0 7.018854093391989 0.0
0.0 0.0 11.928281277128635
Na Cd Cl
4 2 8
direct
0.5 0.0897650644898048 0.6819842640348543 
0.5 0.9102349355101951 0.31801573596514643 
0.5 0.41023493551019524 0.18198426403485382 
0.5 0.589765064489805 0.8180157359651458 
0.0 0.5 0.5 
0.0 0.0 0.0 
0.5 0.7507362459174529 0.5435354014432328 
0.5 0.2492637540825469 0.45646459855676746 
0.0 0.1247832679537308 0.2057739954219238 
0.0 0.8752167320462694 0.7942260045780762 
0.0 0.6247832679537306 0.2942260045780762 
0.0 0.3752167320462693 0.7057739954219239 
0.5 0.250736245917453 0.9564645985567672 
0.5 0.7492637540825472 0.043535401443232605 
