System
1.0
3.9291026872071027 0.1847359932742755 -3.451766316250567
-0.6866001255587625 3.8730550707951212 -3.451766316250567
-0.1476189685420989 -0.1847359932794509 5.227881719045953
Mg Ga
1 3
direct
0.0 0.0 0.0 
0.5000000000000001 0.5 1.0929536298745014e-16 
0.75 0.24999999999999994 0.4999999999999999 
0.25 0.7499999999999999 0.5 
