System
1.0
0.0 4.237787722973085 0.0022289303142236
10.722315723706561 0.0 0.0
0.0 -2.1145111380343655 -6.971722460632443
K Ca Br
2 2 6
direct
0.7479133607185259 0.7500000000000001 0.4955756225073519 
0.2520866392814742 0.25 0.5044243774926477 
0.0 0.5 0.0 
0.0 0.0 0.0 
0.6363593855595159 0.4436328825179766 0.2727874314457522 
0.36364061444048407 0.9436328825179768 0.7272125685542479 
0.6363593855595159 0.05636711748202329 0.2727874314457522 
0.36364061444048407 0.5563671174820232 0.7272125685542479 
0.07112790817416151 0.7500000000000001 0.1419946577427855 
0.9288720918258385 0.25 0.8580053422572145 
