System
1.0
3.3803199081134516 0.0031955804481959 5.918040200603025
1.5735057969639945 2.9917639816764323 5.918040201967446
0.0052863887147497 0.0031955774840136 6.815404173487039
Rb Dy O
1 1 2
direct
0.0 0.0 0.0 
0.49999999999999994 0.4999999999999999 0.5 
0.7743174156188625 0.7743174156188264 0.7743174156188768 
0.22568258438113772 0.22568258438117328 0.22568258438112357 
