System
1.0
4.34661416030139 2.18720090004e-05 1.2565298608006794
2.1734041333268572 8.041661951596524 0.6283354676745808
-0.0561633271187259 5.04169883044e-05 8.354680522891096
Zn Cd Se C N
1 1 4 4 4
direct
0.7499370428465604 0.5001148337348632 0.5000285305143961 
0.499990907138845 9.0856873735e-06 -4.470215811097027e-06 
0.3013700496020744 0.7184758612988414 0.02654216177970799 
0.6721895343564561 0.026509158806825903 0.2814154211786744 
0.9807927885639702 0.9733492776116741 0.7186211652449146 
0.045828878070898735 0.28126911050717973 0.9733701063516454 
0.4551860199278964 0.6412773896748201 0.2038417946413773 
0.3410017300096062 0.2038450792886006 0.3586979673180429 
0.9039657783758054 0.7961675956775449 0.6412655815394234 
0.2998584196585928 0.35871498054395545 0.7961634067466548 
0.5548951838666922 0.5889811388413709 0.3180617563089874 
0.1270292004976086 0.31807419099360773 0.4110908516619183 
0.8563959710602618 0.682026782470423 0.5888829440514657 
0.4615594960247308 0.4111855148629173 0.6820227828786025 
