System
1.0
4.285928268598706 -0.0016045423308644 3.3934466916302437
2.127230504671251 3.720762566749684 3.3934466916302446
-0.0013512076586093 -0.0007836005600109 6.950098172111584
Tm Ga Ni
2 3 1
direct
0.5383596884766256 0.5383596884766254 0.7098397015957112 
0.45305139849286635 0.45305139849286635 0.29674416945868715 
0.851937154591559 0.851937154591559 0.6791545672995714 
0.8238574724041392 0.8238574724041393 0.12560231294368657 
0.16322699187055784 0.16322699187055784 0.9065749302450157 
0.1695672941642597 0.1695672941642597 0.2820843184573209 
