System
1.0
-1.5474280997222345 1.5474280997222345 4.227294820567198
1.5474280997222345 -1.5474280997222345 4.227294820567198
1.5474280997222345 1.5474280997222345 -4.227294820567198
Hf Mn Be
1 1 1
direct
0.332166581024278 0.332166581024278 0.0 
0.6410476900912899 0.64104769009129 0.0 
0.0267867288844294 0.0267867288844294 0.0 
