System
1.0
7.688155617266555 0.1088870133916262 -5.811746601e-06
-2.460058544963513 7.284759408530677 -1.57379835377e-05
-2.614053042488259 -3.6968371818140815 6.214471133293183
Nd Cu Se
5 1 8
direct
0.11430217441522011 0.7435088316705347 0.8730166973836997 
0.2564916105728019 0.6295068497009756 0.3707931544541673 
0.37049238879375157 0.24128475607490033 0.6269829072791928 
0.6250003141525823 0.37499995424631893 0.2500003097089311 
0.758714809590001 0.8856977665113562 0.1292073378390309 
0.8749938499268213 0.1250049423451757 0.7499951432983851 
0.9831369923924503 0.861170176586708 0.5079157708084795 
0.009849861925680036 0.36324169638533965 0.49010375759003794 
0.4802543748324185 0.990149894306459 0.8533925153075141 
0.1388308252194201 0.1467448378972355 0.121968043256601 
0.37313739061758505 0.5197447215402807 0.0098958476712146 
0.6367593344591999 0.6268623513160251 0.6466087364120634 
0.524780525623785 0.016863130529838927 0.3780354138919966 
0.8532555474782817 0.4752200908888513 0.9920843650986858 
