System
1.0
5.37555988549394 0.0 0.0
0.0 5.37555988549394 0.0
-0.0 0.0 3.9527460340803144
W O
2 6
direct
0.5 0.0 0.9383434422468528 
0.0 0.5 0.0616565577531472 
0.5 0.0 0.4884426480741924 
0.0 0.5 0.5115573519258073 
0.75 0.75 0.0 
0.25 0.75 0.0 
0.25 0.25 0.0 
0.75 0.25 0.0 
