System
1.0
6.375424045872687 0.0 3.6808526949061573
2.1251413486242288 6.010807262429803 3.6808526949061573
0.0 0.0 7.361705389812315
K Se Br
2 1 6
direct
0.25 0.25 0.25 
0.75 0.7500000000000001 0.7500000000000001 
0.0 0.0 0.0 
0.7505189272283189 0.24948107276990303 0.2494810727710737 
0.7505189272265408 0.7505189272300968 0.24948107277168116 
0.24948107277345952 0.24948107276990303 0.7505189272283187 
0.7505189272283189 0.24948107276990303 0.7505189272307043 
0.24948107277168136 0.7505189272300968 0.24948107276929546 
0.24948107277168136 0.7505189272300968 0.7505189272289262 
