System
1.0
5.352504004441912 0.0 0.0
-0.0 5.208560022417575 -1.8787266959267226
0.0 -0.0121893860491543 8.125642466742669
Si Bi O
2 4 10
direct
0.7048225036759486 0.6788715416511039 1.0874003288813394e-12 
0.2048225036759488 0.3211284583488963 -1.0873902235217055e-12 
0.2479606954244041 0.6131604719585765 0.669767509548998 
0.747960695424404 0.3868395280414235 0.33023249045100145 
0.747960695424404 0.0566070375952592 0.6697675095527243 
0.2479606954244041 0.9433929624047409 0.33023249044727593 
0.481910700127883 0.2583147523293305 0.5033725304587227 
0.9819107001278825 0.7416852476706699 0.49662746954127773 
0.9819107001278825 0.24505777813027238 0.5033725304592122 
0.481910700127883 0.7549422218697279 0.49662746954078835 
0.679001869190483 0.7324647094387641 0.8163612864839536 
0.1790018691904826 0.26753529056123593 0.1836387135160467 
0.4794319668385196 0.4663113175072078 4.145962496964423e-13 
0.97943196683852 0.5336886824927927 -4.1461244962971953e-13 
0.679001869190483 0.9161034229571909 0.1836387135176654 
0.1790018691904826 0.0838965770428083 0.8163612864823351 
