System
1.0
4.29842369 0.0 0.0
-2.14921185 3.72254411 0.0
0.0 0.0 4.387864
Ca Ga
1 2
direct
0.0 0.0 0.0 
0.33333333 0.66666667 0.5 
0.66666667 0.33333333 0.5 
