System
1.0
5.23018752 0.0 0.0
0.0 5.23018752 0.0
0.0 0.0 8.49166622
F Sn
8 4
direct
0.74330569 0.85791731 0.3285323 
0.25669431 0.14208269 0.8285323 
0.85791731 0.74330569 0.6714677 
0.35791731 0.75669431 0.0785323 
0.14208269 0.25669431 0.1714677 
0.24330569 0.64208269 0.4214677 
0.75669431 0.35791731 0.9214677 
0.64208269 0.24330569 0.5785323 
0.00377865 0.00377865 0.5 
0.49622135 0.50377865 0.75 
0.50377865 0.49622135 0.25 
0.99622135 0.99622135 0.0 
