System
1.0
3.49275562 -0.00645623 5.32038578
1.58553373 3.11214818 5.32038578
-0.01055693 -0.00645623 6.36441161
N Sr Ce
2 1 1
direct
0.76457793 0.76457793 0.76457793 
0.23542207 0.23542207 0.23542207 
0.0 0.0 0.0 
0.5 0.5 0.5 
