System
1.0
4.88689426 0.0 -2.21021089
-0.99961897 4.78356534 -2.21021089
0.00730662 0.00899131 6.5238528
S Cu Ga
4 2 2
direct
0.87648405 0.875 0.25 
0.625 0.12351595 0.75 
0.37351595 0.375 0.25 
0.125 0.62648405 0.75 
0.25 0.75 0.5 
0.0 0.0 0.0 
0.5 0.5 0.0 
0.75 0.25 0.5 
