System
1.0
-2.9498379 2.9498379 3.33583264
2.9498379 -2.9498379 3.33583264
2.9498379 2.9498379 -3.33583264
V H
8 4
direct
0.73087148 0.73241142 0.50153994 
0.73241142 0.73087148 0.00153994 
0.22933153 0.73087148 0.49846006 
0.73087148 0.22933153 0.99846006 
0.26912852 0.26758858 0.49846006 
0.26758858 0.26912852 0.99846006 
0.77066847 0.26912852 0.50153994 
0.26912852 0.77066847 0.00153994 
0.0 0.5 0.0 
0.5 0.0 0.5 
0.0 0.0 0.0 
0.0 0.0 0.5 
