System
1.0
0.0 3.2858743 3.2858743
3.2858743 0.0 3.2858743
3.2858743 3.2858743 0.0
Mg Zr Pd
1 1 2
direct
0.25 0.25 0.25 
0.75 0.75 0.75 
0.0 0.0 0.0 
0.499999 0.499999 0.499999 
