System
1.0
3.08496454 0.0 0.0
0.0 5.25038035 0.0
0.0 0.0 4.98028097
Li Mg
3 1
direct
0.0 0.00134399 0.0 
0.500001 0.50041495 0.0 
0.500001 0.16709785 0.5 
0.0 0.66447622 0.5 
