System
1.0
5.21199218 0.0 0.0
-2.60599609 4.51371763 0.0
0.0 0.0 14.18669441
O Mg Ta
18 8 4
direct
0.28814891 0.28814891 0.75 
0.0 0.71185109 0.75 
0.71185109 0.0 0.75 
0.71185109 0.71185109 0.25 
0.0 0.28814891 0.25 
0.28814891 0.0 0.25 
0.6829228 0.65411347 0.58472152 
0.34588653 0.02880933 0.58472152 
0.97119067 0.3170772 0.58472152 
0.02880933 0.34588653 0.91527848 
0.3170772 0.97119067 0.91527848 
0.65411347 0.6829228 0.91527848 
0.34588653 0.3170772 0.08472152 
0.6829228 0.02880933 0.08472152 
0.97119067 0.65411347 0.08472152 
0.02880933 0.6829228 0.41527848 
0.65411347 0.97119067 0.41527848 
0.3170772 0.34588653 0.41527848 
0.33333333 0.66666667 0.0165098 
0.66666667 0.33333333 0.4834902 
0.66666667 0.33333333 0.9834902 
0.33333333 0.66666667 0.5165098 
0.33333333 0.66666667 0.80892561 
0.66666667 0.33333333 0.69107439 
0.66666667 0.33333333 0.19107439 
0.33333333 0.66666667 0.30892561 
0.0 0.0 0.35711565 
0.0 0.0 0.14288435 
0.0 0.0 0.64288435 
0.0 0.0 0.85711565 
