System
1.0
3.18014101 0.0 1.83605527
1.060047 2.9982657 1.83605527
0.0 0.0 3.67211054
F Ti
2 1
direct
0.75 0.75 0.75 
0.25 0.25 0.25 
0.0 0.0 0.0 
