System
1.0
5.31292954 1e-08 -2.51757789
-1.19297619 5.17726068 -2.51757788
-0.00803274 -0.0100942 6.8478644
Al Se Cd
2 4 1
direct
0.25 0.75 0.5 
0.5 0.5 0.0 
0.86683258 0.86779227 0.27384502 
0.40701245 0.40605275 0.27384502 
0.13220773 0.59298755 0.72615498 
0.59394725 0.13316742 0.72615498 
0.0 0.0 0.0 
