System
1.0
5.80139211 0.0 0.0
0.0 8.84308256 -1.43946387
0.0 -0.0058056 8.95947162
Li Na Al P
4 8 4 8
direct
0.5 0.8813105 0.8813105 
0.5 0.1186895 0.1186895 
0.0 0.6186895 0.6186895 
0.0 0.3813105 0.3813105 
0.75 0.931511 0.568489 
0.78600415 0.32176976 0.67823024 
0.21399585 0.67823024 0.32176976 
0.75 0.431511 0.068489 
0.25 0.568489 0.931511 
0.25 0.068489 0.431511 
0.28600415 0.17823024 0.82176976 
0.71399585 0.82176976 0.17823024 
0.0 0.87033471 0.87033471 
0.0 0.12966529 0.12966529 
0.5 0.37033471 0.37033471 
0.5 0.62966529 0.62966529 
0.213634 0.89582148 0.10417852 
0.286366 0.39582148 0.60417852 
0.786366 0.10417852 0.89582148 
0.713634 0.60417852 0.39582148 
0.75 0.14861527 0.35138473 
0.25 0.35138473 0.14861527 
0.25 0.85138473 0.64861527 
0.75 0.64861527 0.85138473 
