System
1.0
5.01605496 0.0 0.0
0.0 5.81207079 0.0
0.0 0.0 8.03479772
C O Ca
4 12 4
direct
0.25 0.91647117 0.26220759 
0.75 0.08352883 0.73779241 
0.25 0.41647117 0.23779241 
0.75 0.58352883 0.76220759 
0.47391261 0.41381461 0.31956834 
0.97391261 0.58618539 0.68043166 
0.02608739 0.91381461 0.18043166 
0.52608739 0.08618539 0.81956834 
0.75 0.59274404 0.92282215 
0.25 0.40725596 0.07717785 
0.75 0.09274404 0.57717785 
0.25 0.90725596 0.42282215 
0.52608739 0.58618539 0.68043166 
0.02608739 0.41381461 0.31956834 
0.97391261 0.08618539 0.81956834 
0.47391261 0.91381461 0.18043166 
0.25 0.75935553 0.91493876 
0.75 0.24064447 0.08506124 
0.25 0.25935553 0.58506124 
0.75 0.74064447 0.41493876 
