System
1.0
5.94994174 -0.00051813 -0.94277228
-3.19586401 5.01879072 -0.94277228
0.06240874 0.1137165 6.65197168
Al Cl
2 6
direct
0.8333826 0.1666174 0.0 
0.1666174 0.8333826 0.0 
0.79547343 0.79547343 0.78873261 
0.20452657 0.20452657 0.21126739 
0.56832003 0.93150335 0.21036776 
0.06849665 0.43167997 0.78963224 
0.43167997 0.06849665 0.78963224 
0.93150335 0.56832003 0.21036776 
