System
1.0
2.62792886 0.0 -0.79742303
-0.45814868 3.47028188 -1.5098412
0.01700917 -0.0097543 4.78497048
V Pd
1 2
direct
0.0 0.0 0.0 
0.66195121 0.66195121 0.32390241 
0.33804879 0.33804879 0.67609759 
