System
1.0
9.5e-07 3.28875039 3.28874922
3.28874823 -1.13e-06 3.2887513
3.28874447 3.28874867 2.62e-06
Sc Al Os
2 1 1
direct
0.99999916 0.99999947 0.9999999 
0.50000036 0.50000018 0.49999968 
0.24999912 0.24999914 0.24999933 
0.74999937 0.7499992 0.74999909 
