System
1.0
6.08902128 0.0 0.0
-3.04451064 5.27324712 0.0
0.0 0.0 3.26072725
P Mn
3 6
direct
0.66666667 0.33333333 0.0 
0.33333333 0.66666667 0.0 
0.0 0.0 0.5 
0.59992269 0.0 0.5 
0.40007731 0.40007731 0.5 
0.0 0.59992269 0.5 
0.0 0.25637276 0.0 
0.74362724 0.74362724 0.0 
0.25637276 0.0 0.0 
