System
1.0
3.25537929 0.0 0.0
0.0 3.25537929 0.0
0.0 0.0 3.25537929
Sc Cu
1 1
direct
0.5 0.5 0.5 
0.0 0.0 0.0 
