System
1.0
4.41405151 0.0 0.0
-2.20702576 3.82268074 0.0
0.0 0.0 13.21001902
Sn Pt
6 4
direct
0.33333333 0.66666667 0.57071982 
0.66666667 0.33333333 0.07071982 
0.66666667 0.33333333 0.42928018 
0.33333333 0.66666667 0.92928018 
0.0 0.0 0.25 
0.0 0.0 0.75 
0.33333333 0.66666667 0.356607 
0.66666667 0.33333333 0.856607 
0.66666667 0.33333333 0.643393 
0.33333333 0.66666667 0.143393 
