System
1.0
4.97364037 0.0 0.0
0.0 5.26420252 0.0
0.0 0.0 7.29769513
O Al Sc
12 4 4
direct
0.19226612 0.1950964 0.93755847 
0.69226612 0.3049036 0.06244153 
0.30773388 0.6950964 0.56244153 
0.80773388 0.8049036 0.43755847 
0.80773388 0.8049036 0.06244153 
0.30773388 0.6950964 0.93755847 
0.69226612 0.3049036 0.43755847 
0.19226612 0.1950964 0.56244153 
0.12205843 0.45447726 0.25 
0.62205843 0.04552274 0.75 
0.37794157 0.95447726 0.25 
0.87794157 0.54552274 0.75 
0.5 0.0 0.0 
0.0 0.5 0.0 
0.0 0.5 0.5 
0.5 0.0 0.5 
0.47804087 0.43169434 0.75 
0.97804087 0.06830566 0.25 
0.02195913 0.93169434 0.75 
0.52195913 0.56830566 0.25 
