System
1.0
0.00148349 3.06752667 3.06920306
3.06984498 -0.00010263 3.07078945
3.06750329 3.06677114 0.00223907
Ti Ge Ru
1 1 2
direct
0.75003144 0.7500096 0.75000155 
0.25002478 0.25001785 0.24995859 
6.639e-05 -5.005e-05 0.9999092 
0.49987839 0.5000236 0.50013166 
