System
1.0
0.0 3.4209041 3.4209041
3.4209041 0.0 3.4209041
3.4209041 3.4209041 0.0
Y Ni Ir
2 1 1
direct
0.0 0.0 0.0 
0.499999 0.499999 0.499999 
0.750001 0.750001 0.750001 
0.25 0.25 0.25 
