System
1.0
0.0 3.3107541 3.3107541
3.3107541 0.0 3.3107541
3.3107541 3.3107541 0.0
Sc Ag Os
2 1 1
direct
0.0 0.0 0.0 
0.5 0.5 0.5 
0.249999 0.249999 0.249999 
0.75 0.75 0.75 
