System
1.0
5.3346111 0.0 0.0
0.0 5.3346111 0.0
0.0 0.0 5.3346111
Nb Sn
6 2
direct
0.25 0.0 0.5 
0.75 0.0 0.5 
0.0 0.5 0.25 
0.0 0.5 0.75 
0.5 0.75 0.0 
0.5 0.25 0.0 
0.0 0.0 0.0 
0.5 0.5 0.5 
