System
1.0
4.00359462 0.0 0.0
0.0 4.00359462 0.0
0.0 0.0 4.00359462
N Mn Ag
1 3 1
direct
0.5 0.5 0.5 
0.0 0.5 0.5 
0.5 0.5 0.0 
0.5 0.0 0.5 
0.0 0.0 0.0 
