System
1.0
4.25230738 0.0 0.0
0.0 4.25230738 0.0
0.0 0.0 4.25230738
F Mg Cs
3 1 1
direct
0.0 0.5 0.5 
0.5 0.0 0.5 
0.5 0.5 0.0 
0.5 0.5 0.5 
0.0 0.0 0.0 
