System
1.0
3.92148803 0.0 2.26407217
1.30716268 3.69721437 2.26407217
0.0 0.0 4.52814434
Al Mn Au
1 1 2
direct
0.0 0.0 0.0 
0.5 0.5 0.5 
0.25 0.25 0.25 
0.75 0.75 0.75 
