System
1.0
6.74014225 -0.07534379 -1.70798528
-4.09667838 5.35279557 -1.70798528
0.03773954 0.07534379 6.95307895
Ga In Te
2 2 4
direct
0.25 0.75 0.5 
0.75 0.25 0.5 
0.75 0.75 0.0 
0.25 0.25 0.0 
0.67132711 0.17132711 0.84265422 
0.17132711 0.32867289 0.5 
0.82867289 0.67132711 0.5 
0.32867289 0.82867289 0.15734578 
