System
1.0
2.94861205 0.0 0.0
0.0 3.99755395 0.0
0.0 0.0 5.4081951
B Fe
4 4
direct
0.25 0.88132569 0.53423374 
0.75 0.11867431 0.46576626 
0.75 0.38132569 0.96576626 
0.25 0.61867431 0.03423374 
0.25 0.37992735 0.67814469 
0.75 0.62007265 0.32185531 
0.75 0.87992735 0.82185531 
0.25 0.12007265 0.17814469 
