System
1.0
-1.91435802 1.91435802 3.84223526
1.91435802 -1.91435802 3.84223526
1.91435802 1.91435802 -3.84223526
Zn Rh
1 3
direct
-0.0 -0.0 -0.0 
0.749999 0.25 0.499999 
0.25 0.749999 0.499999 
0.5 0.5 -0.0 
