System
1.0
4.30047282 0.0 0.0
-2.15023641 3.72431871 0.0
0.0 0.0 6.76977453
Mg As
3 2
direct
0.66666667 0.33333333 0.35873084 
0.33333333 0.66666667 0.64126916 
0.0 0.0 0.0 
0.66666667 0.33333333 0.76957948 
0.33333333 0.66666667 0.23042052 
