System
1.0
3.95228544 0.0 0.0
0.0 3.95228544 0.0
0.0 0.0 3.95228544
Rh Hf
3 1
direct
0.5 0.0 0.5 
0.0 0.5 0.5 
0.5 0.5 0.0 
0.0 0.0 0.0 
