System
1.0
3.53604423 0.0 -1.4072686
-0.56006226 3.49140932 -1.4072686
0.00751381 0.00881516 5.16502393
Ti Ga
1 3
direct
0.0 0.0 0.0 
0.25 0.75 0.5 
0.75 0.25 0.5 
0.5 0.5 0.0 
