System
1.0
4.30925642 0.0 0.0
0.0 4.30925642 0.0
0.0 0.0 4.30925642
F K Pd
3 1 1
direct
0.0 0.5 0.0 
0.0 0.0 0.5 
0.5 0.0 0.0 
0.5 0.5 0.5 
0.0 0.0 0.0 
