System
1.0
4.38358884 0.0 0.0
0.0 6.70112517 0.0
0.0 0.0 7.00328092
Ca Br
2 4
direct
0.0 0.0 0.0 
0.5 0.5 0.5 
0.0 0.27641006 0.3268335 
0.0 0.72358994 0.6731665 
0.5 0.77641006 0.1731665 
0.5 0.22358994 0.8268335 
