System
1.0
3.73885212 0.0 0.0
0.0 5.79659488 0.0
0.0 0.0 6.73969095
O Hg
4 4
direct
0.06904472 0.75 0.13776727 
0.56904472 0.25 0.36223273 
0.93095528 0.25 0.86223273 
0.43095528 0.75 0.63776727 
0.74292175 0.75 0.38473908 
0.24292175 0.25 0.11526092 
0.25707825 0.25 0.61526092 
0.75707825 0.75 0.88473908 
