System
1.0
5.70766262 0.00328184 5.48806142
2.33861386 5.20656399 5.48806142
0.0050686 0.00328184 7.91809352
Al Y
9 3
direct
0.7027808 0.7027808 0.26336954 
0.7027808 0.26336954 0.7027808 
0.26336954 0.7027808 0.7027808 
0.5 0.5 0.0 
0.0 0.5 0.5 
0.5 0.0 0.5 
0.2972192 0.73663046 0.2972192 
0.2972192 0.2972192 0.73663046 
0.73663046 0.2972192 0.2972192 
0.78188838 0.78188838 0.78188838 
0.21811162 0.21811162 0.21811162 
0.0 0.0 0.0 
