System
1.0
4.85831856 0.0 -2.20127687
-0.99738619 4.75483754 -2.20127687
0.03942684 0.04855517 6.54892072
S Cu Zn Ge
4 2 1 1
direct
0.87018117 0.87018117 0.25539867 
0.6147825 0.12981883 0.74460133 
0.3852175 0.3852175 0.25539867 
0.12981883 0.6147825 0.74460133 
0.75 0.25 0.5 
0.25 0.75 0.5 
0.0 0.0 0.0 
0.5 0.5 0.0 
