System
1.0
4.00179257 0.0 0.0
0.0 9.88852534 0.0
0.0 0.0 3.6802217
Cd Cu O
2 4 6
direct
0.25 0.25 0.30362256 
0.75 0.75 0.69637744 
0.25 0.58490338 0.16788193 
0.25 0.91509662 0.16788193 
0.75 0.08490338 0.83211807 
0.75 0.41509662 0.83211807 
0.25 0.75 0.4394048 
0.25 0.07657036 0.87633409 
0.25 0.42342964 0.87633409 
0.75 0.25 0.5605952 
0.75 0.57657036 0.12366591 
0.75 0.92342964 0.12366591 
