System
1.0
4.08648961 0.0 -1.17957357
0.0 5.97025081 0.0
0.02397923 0.0 7.75143379
F Zn Ba
8 2 2
direct
0.92247906 0.51896467 0.84495812 
0.07752094 0.01896467 0.15504188 
0.46888971 0.83211288 0.93777942 
0.53111029 0.33211288 0.06222058 
0.69835836 0.19462782 0.39671672 
0.30164164 0.69462782 0.60328328 
0.66490372 0.72728479 0.32980745 
0.33509628 0.22728479 0.67019255 
0.41428112 0.49931259 0.82856223 
0.58571888 0.99931259 0.17143777 
0.85060733 0.95617725 0.70121465 
0.14939267 0.45617725 0.29878535 
