System
1.0
5.53739275 0.0 0.0
0.0 5.53739275 0.0
0.0 0.0 5.53739275
C Ga Pr
1 1 3
direct
0.0 0.0 0.0 
0.5 0.5 0.5 
0.0 0.5 0.5 
0.5 0.0 0.5 
0.5 0.5 0.0 
