System
1.0
5.08758745 -3.343e-05 -2.11644549
-0.88097986 5.01057879 -2.11670752
-0.03343019 -0.0402046 7.08992679
O Na Re
8 2 2
direct
0.91712687 0.31025375 0.58194238 
0.27177589 0.41709829 0.08197715 
0.81028992 0.16478585 0.08202632 
0.66475289 0.77180182 0.58193064 
0.33524711 0.22819818 0.41806936 
0.18971008 0.83521415 0.91797368 
0.72822411 0.58290171 0.91802285 
0.08287313 0.68974625 0.41805762 
0.62499682 0.87510906 0.25008241 
0.37500318 0.12489094 0.74991759 
0.12503932 0.37494992 0.25004111 
0.87496068 0.62505008 0.74995889 
