System
1.0
6.89726057 0.0 0.0
-3.44863029 5.97320287 0.0
0.0 0.0 12.30005827
Cr Te
8 12
direct
0.33333333 0.66666667 0.25 
0.66666667 0.33333333 0.75 
0.0 0.0 0.0 
0.0 0.0 0.5 
0.33333333 0.66666667 0.99276031 
0.33333333 0.66666667 0.50723969 
0.66666667 0.33333333 0.00723969 
0.66666667 0.33333333 0.49276031 
0.32940691 0.99508313 0.37764641 
0.00491687 0.33432378 0.37764641 
0.66567622 0.67059309 0.37764641 
0.00491687 0.67059309 0.12235359 
0.66567622 0.99508313 0.12235359 
0.32940691 0.33432378 0.12235359 
0.67059309 0.00491687 0.62235359 
0.99508313 0.66567622 0.62235359 
0.33432378 0.32940691 0.62235359 
0.99508313 0.32940691 0.87764641 
0.33432378 0.00491687 0.87764641 
0.67059309 0.66567622 0.87764641 
