System
1.0
3.82004923 0.0 -1.62543108
-0.69162098 3.75691849 -1.62543108
0.00899254 0.01079911 5.32274373
N Ti
2 4
direct
0.625 0.375 0.25 
0.375 0.625 0.75 
0.85623532 0.60623532 0.71247064 
0.60623532 0.85623532 0.21247064 
0.39376468 0.14376468 0.78752936 
0.14376468 0.39376468 0.28752936 
