System
1.0
5.87814943 0.0 0.0
0.0 8.75778178 0.0
0.0 0.0 8.75778178
Bi Au O
8 4 20
direct
0.25 0.39757107 0.60242893 
0.75 0.89757107 0.10242893 
0.75 0.39757107 0.89757107 
0.25 0.10242893 0.89757107 
0.25 0.60242893 0.10242893 
0.75 0.60242893 0.39757107 
0.75 0.10242893 0.60242893 
0.25 0.89757107 0.39757107 
0.40642982 0.75 0.75 
0.90642982 0.75 0.75 
0.09357018 0.25 0.25 
0.59357018 0.25 0.25 
0.60747444 0.03496173 0.33009052 
0.10747444 0.03496173 0.16990948 
0.60747444 0.46503827 0.16990948 
0.89252556 0.66990948 0.96503827 
0.60747444 0.33009052 0.46503827 
0.89252556 0.53496173 0.66990948 
0.39252556 0.96503827 0.66990948 
0.10747444 0.33009052 0.03496173 
0.39252556 0.66990948 0.53496173 
0.89252556 0.96503827 0.83009052 
0.0 0.25 0.75 
0.5 0.25 0.75 
0.60747444 0.16990948 0.03496173 
0.10747444 0.46503827 0.33009052 
0.89252556 0.83009052 0.53496173 
0.39252556 0.53496173 0.83009052 
0.10747444 0.16990948 0.46503827 
0.0 0.75 0.25 
0.5 0.75 0.25 
0.39252556 0.83009052 0.96503827 
