System
1.0
9.5e-07 3.0781822 3.07818227
3.07818256 -2.9e-07 3.07818346
3.07818278 3.07818361 -5.3e-07
Ta Cu Rh
1 1 2
direct
0.75000075 0.75000079 0.75000088 
0.25000004 0.25000009 0.25000002 
0.99999973 1.0 5.3e-07 
0.50000048 0.50000012 0.49999957 
