System
1.0
-1.85985106 1.85985106 4.07781472
1.85985106 -1.85985106 4.07781472
1.85985106 1.85985106 -4.07781472
Zn Rh
3 1
direct
0.750001 0.250001 0.5 
0.250001 0.750001 0.5 
0.5 0.5 0.0 
0.0 0.0 0.0 
