System
1.0
5.9710212 0.0 0.0
0.0 7.43307508 -1.45458172
0.0 -0.00367144 7.57406097
O Na P S
2 6 2 6
direct
0.8872155 0.19695379 0.80304621 
0.3872155 0.80304621 0.19695379 
0.25329106 0.08454171 0.31836425 
0.70518945 0.36910573 0.63089427 
0.20518945 0.63089427 0.36910573 
0.25329106 0.68163575 0.91545829 
0.75329106 0.91545829 0.68163575 
0.75329106 0.31836425 0.08454171 
0.14557021 0.20574985 0.79425015 
0.64557021 0.79425015 0.20574985 
0.27116238 0.95497519 0.68924813 
0.23121795 0.37909059 0.62090941 
0.73121795 0.62090941 0.37909059 
0.77116238 0.04502481 0.31075187 
0.27116238 0.31075187 0.04502481 
0.77116238 0.68924813 0.95497519 
