System
1.0
8.19546192 -1e-08 -2.89753345
-4.09773148 7.09747916 -2.89753345
0.0 0.0 8.69260034
Ca Ag
6 16
direct
1.0 0.27756789 0.27756789 
0.72243211 1.0 0.72243211 
0.27756789 0.27756789 1.0 
0.72243211 0.72243211 0.0 
0.0 0.72243211 0.72243211 
0.27756789 0.0 0.27756789 
0.65658812 1.0 0.34341188 
0.65658812 0.31317625 0.65658812 
0.0 0.65658812 0.34341188 
0.68682375 0.34341188 0.34341188 
0.34341188 0.34341188 0.68682375 
1.0 0.34341188 0.65658812 
0.34341188 0.65658812 0.0 
0.65658812 0.65658812 0.31317625 
0.31317625 0.65658812 0.65658812 
0.5 0.0 0.0 
0.65658812 0.34341188 1.0 
0.34341188 0.0 0.65658812 
0.34341188 0.68682375 0.34341188 
0.5 0.5 0.5 
0.0 0.5 0.0 
0.0 0.0 0.5 
