System
1.0
5.4692455 0.0 0.0
-2.73462275 4.73650554 0.0
0.0 0.0 3.20494069
B Ce Ir
2 1 3
direct
0.66666667 0.33333333 0.0 
0.33333333 0.66666667 0.0 
0.0 0.0 0.0 
0.5 0.5 0.5 
0.5 0.0 0.5 
0.0 0.5 0.5 
