System
1.0
5.80590629 0.0 -2.74327079
-1.29618603 5.6593683 -2.74327079
-0.01014809 -0.01273511 7.49401862
Li Al Te
2 2 4
direct
0.75 0.25 0.5 
0.5 0.5 0.0 
0.25 0.75 0.5 
0.0 0.0 0.0 
0.89286027 0.875 0.25 
0.625 0.10713973 0.75 
0.125 0.64286027 0.75 
0.35713973 0.375 0.25 
